	0	1	2	3	4	5	6	7	8	9	10	11	12	13	14	15	16	17	18	19	20	21	22	23	24	25	26	27	28	29	30	31	32	33	34	35	36	37	38	39	40	41	42	43	44	45	46	47	48	49	50	51	52	53	54	55	56	57	58	59	60	61	62	63	64	65	66	67	68	69	70	71	72	73	74	75	76	77	78	79	80	81	82	83	84	85	86	87	88	89	90	91	92	93	94	95	96	97	98	99	100	101	102	103	104	105	106	107	108	109	110	111	112	113	114	115	116	117	118	119	120	121	122	123	124	125	126	127	128	129	130	131	132	133	134	135	136	137	138	139	140	141	142	143	144	145	146	147	148	149	150	151	152	153	154	155	156	157	158	159	160	161	162	163	164	165	166	167	168	169	170	171	172	173	174	175	176	177	178	179	180	181	182	183	184	185	186	187	188	189	190	191	192	193	194	195	196	197	198	199	200	201	202	203	204	205	206	207	208	209	210	211	212	213	214	215	216	217	218	219	220	221	222	223	224	225	226	227	228	229	230	231	232	233	234	235	236	237	238	239	240	241	242	243	244	245	246	247	248	249	250	251	252	253	254	255	256	257	258	259	260	261	262	263	264	265	266	267	268	269	270	271	272	273	274	275	276	277	278	279	280	281	282	283	284	285	286	287	288	289	290	291	292	293	294	295	296	297	298	299
Cramér–von Mises criterion_0	0.0001081581	0.0003756857	-5.5233177e-05	-0.00029268445	0.0012916583	4.6371686e-05	-0.00044696603	-0.00011021599	0.00018679105	0.0010552314	0.0003109398	-0.0001864001	0.00039598136	0.00043491393	0.00042061124	0.00086124777	0.00050869246	-3.0139083e-05	-2.2542128e-05	-0.00091021566	6.3621614e-05	0.0005584775	0.0005074079	-0.0006762084	-0.00033435298	0.00048681203	-0.0004411471	-0.00042355512	-0.00060074544	-4.0001003e-05	-0.00083705067	0.0004907559	-0.00041889475	3.6549143e-05	0.000541903	-0.0005614121	0.0004779674	-0.00066895236	0.00035682158	-0.00013593872	9.300625e-05	-0.000113025984	-0.00036990523	4.5244906e-05	0.00047001144	-0.00071513624	-0.00010190542	0.00033749815	0.0006187547	0.0005024848	0.00030975317	-0.001211539	0.0003837266	-0.00035142776	-0.0008364107	7.0013455e-05	-0.0004896071	0.0009161235	-0.00011549234	-0.00045707994	0.000769359	0.00023851151	-2.887621e-05	-0.0006461962	0.00068503973	0.00083730405	-0.00022175393	0.0003832828	-2.6713875e-05	-0.0007719308	0.00019301433	-0.0006530545	0.0005972042	-0.0005297565	-0.00027317344	-2.89139e-05	0.00057354337	0.00036843686	-0.00026809255	0.00027862034	-0.00048884336	0.00075576274	0.0006066301	7.07894e-05	0.00047845225	-0.0006115285	0.0006863934	0.000100831734	7.271646e-05	0.00046423273	-0.00046601525	0.0007069085	6.973909e-05	8.074299e-05	-0.00039621614	0.0005713618	-0.0004343249	-0.00025538265	-0.00027113516	0.00063189364	-1.8809718e-05	3.5961712e-06	-4.0397863e-05	-0.00034765113	0.0002311035	0.000158818	0.0002652234	-0.0004731029	0.00050230976	-0.0007260236	0.0005741636	0.00035973298	0.00029525365	0.00036376822	0.00028331668	0.0009398187	0.00033641595	-6.2717445e-05	0.00060662185	-0.00014705192	0.00047128258	0.00039657642	0.00024770835	0.00051138655	-0.00023318948	0.00034485536	-0.00033221146	0.0006231745	-0.0005626335	-0.0002422088	-5.0466013e-05	0.00013912038	9.044274e-06	-0.00021691996	0.00014785993	0.00016529037	0.00063470704	0.0002149574	0.0005864707	0.0007684989	-0.00015935487	-0.00024227114	-0.00020339989	0.00042031385	-4.0350562e-05	0.00049099437	-0.00025614657	7.210713e-05	-0.0012852056	0.00021299685	-0.00093672937	-0.00036127455	-9.521464e-06	4.9781564e-05	-0.000508168	0.00012804853	0.00020771702	-0.0005079916	-0.00037369836	6.92506e-06	0.00045956724	0.00031710748	4.5385583e-05	-0.00058155635	0.00045393777	-0.0001944409	-0.00046147275	0.0004911574	0.00071141403	0.00029306614	-0.00022541192	-0.0006690666	-0.0001715062	0.00028675317	-0.00019207869	-0.00012342466	0.00012660128	-0.00040197838	-0.0003574217	-0.00044273605	-0.00089351845	0.0002582282	-0.00047404616	-0.00022449251	0.00025445048	-0.00032570903	0.00036390722	-0.000530791	-0.0008134973	-0.0005289032	-0.00010114783	-2.3628498e-05	0.00016256739	-0.00034023222	-0.00064061885	0.0005813601	0.0007488165	-0.00079551054	-0.00033693077	-0.0003894741	-0.00032319486	-0.00047039817	0.00018331553	0.00039143435	-0.0003190952	0.0001379462	-0.0008816447	-4.1234918e-05	-0.0002173655	-0.00022701884	-0.00051096664	9.3362e-05	-5.078879e-05	-2.317151e-05	0.00031597115	0.001186341	-0.00061445293	0.00058341934	-0.00074600393	-0.00035281456	-0.00016295754	0.00024529765	-0.0007909852	0.0003485732	-0.0003792815	0.0002502291	-0.00015742343	0.00022710956	0.00019703699	0.0005257847	-0.00027341652	-0.00021414552	-0.0003626782	-0.0011105293	5.680552e-05	-0.00070448866	0.00055363827	0.0010365554	0.00012067819	0.00067965954	-0.00021932322	0.0002855461	0.00023660749	0.0002545222	-0.0007372174	0.0006041173	0.00043847732	-0.00019745374	-0.00012747632	-0.0009082212	0.00047768143	-0.00016117851	0.00025771678	-0.0008442054	0.00036202488	-0.0002327289	0.00044945296	0.0001458162	-0.00029454858	0.00046604226	0.00050268084	0.000729106	0.00025038954	0.000788959	0.0010502075	-2.1273649e-05	0.000285214	-0.00030170256	9.541289e-05	0.00046158623	4.3692984e-05	0.000937163	0.0009932106	-0.00096900447	0.00023996193	-0.00067050045	6.766533e-05	-0.0005255848	0.00011461566	-0.0012457585	-0.0008143813	-0.00019558423	-0.0001891113	-0.0005724359	-0.00032285525	0.00039776022	-0.0006128452	0.00016335119	-0.00018222272	-0.00052248087	0.00027546086	8.907956e-05	-0.0006718128	-0.0007803781	0.00014472772	-0.0003873221	-0.00068765826	-8.037976e-05	-0.0006501754	0.00045050436
Cramér–von Mises criterion_1	0.0005873699	-0.000842757	-0.0008569261	-6.8005786e-05	0.00066106487	-0.00026054328	-0.00030797662	0.0007636308	0.0004078687	0.0008745108	0.00049823354	-0.00014878497	0.00027113844	0.00034094168	6.505505e-05	0.00080191006	0.00030581834	-0.00093981915	-8.5659616e-05	-0.00030647774	0.00018711027	4.1297175e-05	0.00051306636	-0.00064078445	-0.00016671524	-0.000290418	-0.00033619432	0.00027344484	-0.00017881996	-0.00013246307	-0.0004075278	0.0010638058	1.5337166e-05	5.151049e-05	9.348862e-05	2.1682157e-05	0.000675505	6.124872e-06	-1.5460653e-05	-0.00038625475	0.00022448177	-0.00019222382	-0.00031266245	-0.00012858723	0.00041350749	-0.00017333633	-0.0009408088	0.00033642526	-4.228876e-05	0.00021785591	0.00029596715	-0.0005039314	-0.0003563322	-0.00080791384	-0.00086402136	-0.0002504623	-0.0008960352	0.0010148797	-0.00013824314	-0.00043084397	0.00034612033	-0.0004285932	0.0008202555	-0.00051659497	-0.0003245696	0.00011054776	0.00033578742	0.0011953939	0.00020326456	-0.00067471334	-1.8056307e-05	-0.00070249476	0.0002275469	4.345883e-05	5.1169394e-05	0.00028736176	0.0009203821	0.0007223823	0.00049710856	0.0004624558	3.705151e-05	0.0007010692	0.0007273827	0.00012689394	0.00081029395	0.00010772873	7.056202e-05	0.00044279205	-8.505846e-05	-0.00054277544	-0.0008074543	0.0010129733	0.00037154244	-0.0007313222	-0.00027821175	6.26205e-05	0.00023356572	0.00047764217	0.00050810975	0.001399162	0.00022298426	-0.0004233304	-0.00024592853	-0.0005966266	0.0004558741	-0.0007227033	0.00011901993	-0.00016977478	0.0004626288	0.00021799414	-0.00018781147	-0.0005400463	0.0008549432	0.00042662813	0.00046580195	0.00033836553	0.0012969845	0.00021396039	-0.00035639096	-0.00013823832	0.00050533895	0.0008770864	0.00010900784	0.00039661137	-0.0006848031	-0.0005251506	-0.0002798192	9.17905e-05	-0.0001945787	0.00036714927	-0.00085229916	-0.00085703813	-0.00011613679	-0.000114022536	-0.0004273894	0.0002722831	0.00014464546	0.00059396017	-0.00015109297	-0.0004436613	0.00017059539	0.00037451967	-5.3834847e-05	4.3391396e-05	-0.0007233304	0.00024794962	-0.00029283477	-0.00021092054	-0.0002626558	-0.0010807491	-0.00066062924	-4.0884683e-05	-0.0005753424	0.00055945956	-0.00039745995	0.00043768398	-5.4423133e-05	-0.00039419567	0.00044678163	-1.1869684e-05	0.0006617897	-5.2394957e-06	-0.0003251928	-0.0005918491	0.0001507647	0.0007426947	-0.0008550595	-0.0003183608	0.00014175297	-0.00024027379	-0.00072888384	-8.847981e-05	-0.00039418408	-0.00058170257	-0.0010144049	-8.688206e-05	0.00010833045	0.00016546428	-0.0006809509	0.00047409776	-0.0003139921	0.0005695161	-0.00054811174	-0.0011627257	0.00038089455	-0.00035314678	0.0005505623	-9.381541e-05	-0.00029957862	-0.00012498055	3.6241458e-05	0.00017763548	0.00019731495	-5.628662e-05	-0.0006526563	0.00019262184	6.391289e-05	0.00037176465	6.447063e-05	-0.0004420877	-0.00011295418	-0.0010081788	-0.0006102901	-0.00021304734	-0.00065160927	-0.00075762125	-0.0007179093	-0.0003659119	-0.00038881495	-0.00025573658	0.0005567356	-0.00061548024	5.9234946e-05	0.00018637182	0.0005134239	0.0002350496	0.00040943327	-0.00024433702	-0.00074723957	-0.0008126998	2.3135217e-05	3.472026e-05	-0.00020972887	0.00019193097	-0.00054425444	0.00061334576	-0.0003081741	-0.00023313754	1.2775417e-05	0.00046167435	-0.0008299181	-0.00089581206	0.00042482812	-0.001131878	-0.0005552473	-0.0005007343	0.0006395243	0.0004999287	1.5248048e-05	0.00026747727	-0.00046462356	-0.00029578386	0.0007831001	0.00073689566	7.879906e-05	0.00052982406	0.0007382512	0.00044278527	-0.00048977585	-0.00021584779	-7.356075e-05	0.00019451897	-0.000349814	0.00013893817	0.0010630523	-0.00011474418	-0.0005400829	0.000109099215	0.0002848597	0.000107561245	0.00063519547	0.0004286114	0.00064354175	-0.0001858511	0.0009963998	-0.00037487908	0.0002306366	-0.0001479449	0.0008048621	0.0006269199	0.0001778621	-0.0002581618	0.0006675074	-0.00060933095	-0.00046316217	0.00026042375	0.00024141614	-0.00017483819	0.00019256247	-0.00028905124	-0.0002654057	-0.00054546125	0.00029074526	0.00013003875	-0.00019729078	0.0006808373	-0.00023090348	0.00053554267	-0.00034468807	-0.00040660836	0.00020289668	0.00057042274	-0.00034259533	-0.00095437805	-0.00036015763	-0.00018469564	-0.0005111074	0.0005646788	8.7164575e-05	0.0010290133
Cramér–von Mises criterion_2	-0.00011447195	-0.00029165385	-0.00022657913	-0.00023791549	0.0006738815	3.360173e-06	-0.00027654975	0.00013580636	0.00017360917	0.00050737866	0.0002911633	3.2638778e-05	0.00038234363	0.00012388577	0.00023734676	0.00057367247	0.00031982156	-0.0003345993	3.4971934e-05	-0.00033333094	-1.18663065e-05	0.00039471034	0.00044081916	-0.00030954884	-0.00035697955	-8.101827e-05	-0.00011883307	-0.00012944108	-0.00014297817	-6.638899e-05	-0.00023275186	0.00025163338	-0.00017861689	0.0002583201	0.000342123	-6.391811e-05	0.00029056842	-0.0003030074	0.00016058587	-0.00016069009	0.00011248859	-7.5725875e-05	-9.874621e-05	-0.00012523081	0.00037505862	-0.00036109195	-0.00039079433	9.8370954e-05	0.0001365368	0.00011642925	0.00011810394	-0.0005519886	-0.00029752761	-0.00044828578	-0.0001470906	-1.705804e-05	-0.00064299005	0.0006079978	-0.00032215458	-0.00011177953	0.00052057864	0.00015073773	0.0002612692	-0.0002469121	0.00035916024	0.0004975512	-3.1120522e-05	0.00044362035	0.00021033558	-0.00060776586	0.00010573347	-0.0005354551	0.00033584796	-0.00032877823	-0.0001270816	0.00023374388	0.00053109747	0.00032151974	4.9555045e-05	0.00013203628	-4.240885e-06	0.00057277415	0.0007125865	0.00036513823	0.00026878514	-0.00027715214	0.00014186854	-7.305996e-06	-4.9493967e-05	2.0742702e-06	-0.00048256427	0.00054617575	0.00025388517	-0.00022992094	-2.9094643e-05	0.00036301074	-0.0002779745	7.77972e-05	3.7145623e-05	0.00044131943	-6.446879e-05	-0.00013324071	0.00012787782	-0.00031434014	0.0003642706	-7.8847464e-05	0.000274769	-0.00048670828	0.00013299935	-9.047883e-05	0.00021884257	-0.00014355376	0.00030220355	4.7767393e-05	3.9058672e-05	0.0004258715	0.00035710973	0.00027734655	0.00029036478	-0.00021571526	0.00043403808	0.00060902385	0.000113732334	0.00023503647	-0.0003865686	6.531057e-05	-0.00042512122	0.0005475189	-0.0003534723	4.071267e-05	-0.000108633954	-0.00027856088	0.0002415449	-0.00037768198	-0.00015835957	0.0001595508	0.0004113255	0.00053960615	0.00016419112	1.8687002e-05	0.00016774268	-0.00017874391	-0.00026809613	0.000121719575	-0.00010871636	0.00023027827	-1.9185141e-05	-0.00014458454	-0.0005993633	-7.7242905e-05	-0.0007163715	-0.00014198621	-8.808611e-05	-1.978531e-05	-0.0004213798	7.059833e-05	6.45732e-05	-0.00039350422	8.223835e-05	0.00020560861	0.00035607364	0.00019932885	-0.0001912223	-4.6652942e-05	2.253973e-05	9.0542264e-05	-0.00024827567	4.3559983e-05	0.000250168	0.0001362116	-0.00019877598	-0.00015857574	-0.00038613754	-0.00020294728	-0.00033648274	-0.00026505272	0.0001812932	-9.5825e-05	-0.0004201405	-0.00010591195	-0.00059278373	0.0001704916	-0.0004613965	-0.00045145446	0.00017795741	-0.0006140248	0.00042952548	-9.147474e-05	-0.00036371252	-0.0002996133	0.00025669363	0.0002152658	0.00032286823	-0.00014996706	-0.000284854	7.116615e-05	0.00063493627	-0.00041800004	-0.00012117286	-0.000587993	-0.0001965118	-0.00036783968	9.739865e-05	-1.9998906e-05	1.4046537e-06	-0.00019259012	-0.00037234314	-0.00028501285	-3.4481865e-05	2.9151506e-06	-2.838687e-05	0.00016481696	1.4368561e-06	-0.00013402409	3.635437e-05	0.00059903564	2.9291794e-05	0.00021932145	-0.0004561079	-0.0004922854	-6.8714064e-05	-7.223315e-05	-0.00059261516	9.576256e-05	-0.00012362332	0.0001367251	-0.0002753439	-0.000103246006	0.00047202886	0.0003805375	-0.00048878294	-0.0003831826	-1.8085762e-05	-0.0008208443	-0.00023675806	-0.0003865603	0.00052748853	0.0008064248	0.000111930254	0.00011148593	-0.00015690856	2.5201482e-05	0.00036890974	0.00021522662	-0.0005350007	0.00023689457	0.00048392004	0.00017162426	-0.00024614783	-0.0005309744	0.00033065223	1.628452e-05	0.00012194402	-0.00043438774	0.00032584995	-0.00025409818	-0.00012332444	0.00011396781	-0.00032925676	0.00025766634	0.00035524252	0.00053896767	-0.0001810152	0.00022351307	0.00092893356	-8.372342e-05	0.00038615294	-0.00038801043	0.00031238925	0.0006228178	0.00015964411	0.0004639027	0.000356663	-0.00057975616	6.8495325e-07	-0.00048491376	0.00021497461	-0.00016583194	6.580077e-06	-0.0008211643	-0.00047825012	-0.00045852805	-5.8116057e-05	9.1409536e-05	4.257202e-05	0.000335017	-0.00015918916	6.7680917e-06	-0.00034921046	-0.00030294314	0.0002423606	0.00047295622	-0.00033001363	-0.0006027572	-9.301084e-05	-0.00016604646	-0.00039635345	4.902895e-06	-0.00049520296	0.00052554434
Cramér–von Mises criterion_3	0.0001081581	0.0003756857	-5.5233177e-05	-0.00029268445	0.0012916583	4.6371686e-05	-0.00044696603	-0.00011021599	0.00018679105	0.0010552314	0.0003109398	-0.0001864001	0.00039598136	0.00043491393	0.00042061124	0.00086124777	0.00050869246	-3.0139083e-05	-2.2542128e-05	-0.00091021566	6.3621614e-05	0.0005584775	0.0005074079	-0.0006762084	-0.00033435298	0.00048681203	-0.0004411471	-0.00042355512	-0.00060074544	-4.0001003e-05	-0.00083705067	0.0004907559	-0.00041889475	3.6549143e-05	0.000541903	-0.0005614121	0.0004779674	-0.00066895236	0.00035682158	-0.00013593872	9.300625e-05	-0.000113025984	-0.00036990523	4.5244906e-05	0.00047001144	-0.00071513624	-0.00010190542	0.00033749815	0.0006187547	0.0005024848	0.00030975317	-0.001211539	0.0003837266	-0.00035142776	-0.0008364107	7.0013455e-05	-0.0004896071	0.0009161235	-0.00011549234	-0.00045707994	0.000769359	0.00023851151	-2.887621e-05	-0.0006461962	0.00068503973	0.00083730405	-0.00022175393	0.0003832828	-2.6713875e-05	-0.0007719308	0.00019301433	-0.0006530545	0.0005972042	-0.0005297565	-0.00027317344	-2.89139e-05	0.00057354337	0.00036843686	-0.00026809255	0.00027862034	-0.00048884336	0.00075576274	0.0006066301	7.07894e-05	0.00047845225	-0.0006115285	0.0006863934	0.000100831734	7.271646e-05	0.00046423273	-0.00046601525	0.0007069085	6.973909e-05	8.074299e-05	-0.00039621614	0.0005713618	-0.0004343249	-0.00025538265	-0.00027113516	0.00063189364	-1.8809718e-05	3.5961712e-06	-4.0397863e-05	-0.00034765113	0.0002311035	0.000158818	0.0002652234	-0.0004731029	0.00050230976	-0.0007260236	0.0005741636	0.00035973298	0.00029525365	0.00036376822	0.00028331668	0.0009398187	0.00033641595	-6.2717445e-05	0.00060662185	-0.00014705192	0.00047128258	0.00039657642	0.00024770835	0.00051138655	-0.00023318948	0.00034485536	-0.00033221146	0.0006231745	-0.0005626335	-0.0002422088	-5.0466013e-05	0.00013912038	9.044274e-06	-0.00021691996	0.00014785993	0.00016529037	0.00063470704	0.0002149574	0.0005864707	0.0007684989	-0.00015935487	-0.00024227114	-0.00020339989	0.00042031385	-4.0350562e-05	0.00049099437	-0.00025614657	7.210713e-05	-0.0012852056	0.00021299685	-0.00093672937	-0.00036127455	-9.521464e-06	4.9781564e-05	-0.000508168	0.00012804853	0.00020771702	-0.0005079916	-0.00037369836	6.92506e-06	0.00045956724	0.00031710748	4.5385583e-05	-0.00058155635	0.00045393777	-0.0001944409	-0.00046147275	0.0004911574	0.00071141403	0.00029306614	-0.00022541192	-0.0006690666	-0.0001715062	0.00028675317	-0.00019207869	-0.00012342466	0.00012660128	-0.00040197838	-0.0003574217	-0.00044273605	-0.00089351845	0.0002582282	-0.00047404616	-0.00022449251	0.00025445048	-0.00032570903	0.00036390722	-0.000530791	-0.0008134973	-0.0005289032	-0.00010114783	-2.3628498e-05	0.00016256739	-0.00034023222	-0.00064061885	0.0005813601	0.0007488165	-0.00079551054	-0.00033693077	-0.0003894741	-0.00032319486	-0.00047039817	0.00018331553	0.00039143435	-0.0003190952	0.0001379462	-0.0008816447	-4.1234918e-05	-0.0002173655	-0.00022701884	-0.00051096664	9.3362e-05	-5.078879e-05	-2.317151e-05	0.00031597115	0.001186341	-0.00061445293	0.00058341934	-0.00074600393	-0.00035281456	-0.00016295754	0.00024529765	-0.0007909852	0.0003485732	-0.0003792815	0.0002502291	-0.00015742343	0.00022710956	0.00019703699	0.0005257847	-0.00027341652	-0.00021414552	-0.0003626782	-0.0011105293	5.680552e-05	-0.00070448866	0.00055363827	0.0010365554	0.00012067819	0.00067965954	-0.00021932322	0.0002855461	0.00023660749	0.0002545222	-0.0007372174	0.0006041173	0.00043847732	-0.00019745374	-0.00012747632	-0.0009082212	0.00047768143	-0.00016117851	0.00025771678	-0.0008442054	0.00036202488	-0.0002327289	0.00044945296	0.0001458162	-0.00029454858	0.00046604226	0.00050268084	0.000729106	0.00025038954	0.000788959	0.0010502075	-2.1273649e-05	0.000285214	-0.00030170256	9.541289e-05	0.00046158623	4.3692984e-05	0.000937163	0.0009932106	-0.00096900447	0.00023996193	-0.00067050045	6.766533e-05	-0.0005255848	0.00011461566	-0.0012457585	-0.0008143813	-0.00019558423	-0.0001891113	-0.0005724359	-0.00032285525	0.00039776022	-0.0006128452	0.00016335119	-0.00018222272	-0.00052248087	0.00027546086	8.907956e-05	-0.0006718128	-0.0007803781	0.00014472772	-0.0003873221	-0.00068765826	-8.037976e-05	-0.0006501754	0.00045050436
Cramér–von Mises criterion_4	0.0005873699	-0.000842757	-0.0008569261	-6.8005786e-05	0.00066106487	-0.00026054328	-0.00030797662	0.0007636308	0.0004078687	0.0008745108	0.00049823354	-0.00014878497	0.00027113844	0.00034094168	6.505505e-05	0.00080191006	0.00030581834	-0.00093981915	-8.5659616e-05	-0.00030647774	0.00018711027	4.1297175e-05	0.00051306636	-0.00064078445	-0.00016671524	-0.000290418	-0.00033619432	0.00027344484	-0.00017881996	-0.00013246307	-0.0004075278	0.0010638058	1.5337166e-05	5.151049e-05	9.348862e-05	2.1682157e-05	0.000675505	6.124872e-06	-1.5460653e-05	-0.00038625475	0.00022448177	-0.00019222382	-0.00031266245	-0.00012858723	0.00041350749	-0.00017333633	-0.0009408088	0.00033642526	-4.228876e-05	0.00021785591	0.00029596715	-0.0005039314	-0.0003563322	-0.00080791384	-0.00086402136	-0.0002504623	-0.0008960352	0.0010148797	-0.00013824314	-0.00043084397	0.00034612033	-0.0004285932	0.0008202555	-0.00051659497	-0.0003245696	0.00011054776	0.00033578742	0.0011953939	0.00020326456	-0.00067471334	-1.8056307e-05	-0.00070249476	0.0002275469	4.345883e-05	5.1169394e-05	0.00028736176	0.0009203821	0.0007223823	0.00049710856	0.0004624558	3.705151e-05	0.0007010692	0.0007273827	0.00012689394	0.00081029395	0.00010772873	7.056202e-05	0.00044279205	-8.505846e-05	-0.00054277544	-0.0008074543	0.0010129733	0.00037154244	-0.0007313222	-0.00027821175	6.26205e-05	0.00023356572	0.00047764217	0.00050810975	0.001399162	0.00022298426	-0.0004233304	-0.00024592853	-0.0005966266	0.0004558741	-0.0007227033	0.00011901993	-0.00016977478	0.0004626288	0.00021799414	-0.00018781147	-0.0005400463	0.0008549432	0.00042662813	0.00046580195	0.00033836553	0.0012969845	0.00021396039	-0.00035639096	-0.00013823832	0.00050533895	0.0008770864	0.00010900784	0.00039661137	-0.0006848031	-0.0005251506	-0.0002798192	9.17905e-05	-0.0001945787	0.00036714927	-0.00085229916	-0.00085703813	-0.00011613679	-0.000114022536	-0.0004273894	0.0002722831	0.00014464546	0.00059396017	-0.00015109297	-0.0004436613	0.00017059539	0.00037451967	-5.3834847e-05	4.3391396e-05	-0.0007233304	0.00024794962	-0.00029283477	-0.00021092054	-0.0002626558	-0.0010807491	-0.00066062924	-4.0884683e-05	-0.0005753424	0.00055945956	-0.00039745995	0.00043768398	-5.4423133e-05	-0.00039419567	0.00044678163	-1.1869684e-05	0.0006617897	-5.2394957e-06	-0.0003251928	-0.0005918491	0.0001507647	0.0007426947	-0.0008550595	-0.0003183608	0.00014175297	-0.00024027379	-0.00072888384	-8.847981e-05	-0.00039418408	-0.00058170257	-0.0010144049	-8.688206e-05	0.00010833045	0.00016546428	-0.0006809509	0.00047409776	-0.0003139921	0.0005695161	-0.00054811174	-0.0011627257	0.00038089455	-0.00035314678	0.0005505623	-9.381541e-05	-0.00029957862	-0.00012498055	3.6241458e-05	0.00017763548	0.00019731495	-5.628662e-05	-0.0006526563	0.00019262184	6.391289e-05	0.00037176465	6.447063e-05	-0.0004420877	-0.00011295418	-0.0010081788	-0.0006102901	-0.00021304734	-0.00065160927	-0.00075762125	-0.0007179093	-0.0003659119	-0.00038881495	-0.00025573658	0.0005567356	-0.00061548024	5.9234946e-05	0.00018637182	0.0005134239	0.0002350496	0.00040943327	-0.00024433702	-0.00074723957	-0.0008126998	2.3135217e-05	3.472026e-05	-0.00020972887	0.00019193097	-0.00054425444	0.00061334576	-0.0003081741	-0.00023313754	1.2775417e-05	0.00046167435	-0.0008299181	-0.00089581206	0.00042482812	-0.001131878	-0.0005552473	-0.0005007343	0.0006395243	0.0004999287	1.5248048e-05	0.00026747727	-0.00046462356	-0.00029578386	0.0007831001	0.00073689566	7.879906e-05	0.00052982406	0.0007382512	0.00044278527	-0.00048977585	-0.00021584779	-7.356075e-05	0.00019451897	-0.000349814	0.00013893817	0.0010630523	-0.00011474418	-0.0005400829	0.000109099215	0.0002848597	0.000107561245	0.00063519547	0.0004286114	0.00064354175	-0.0001858511	0.0009963998	-0.00037487908	0.0002306366	-0.0001479449	0.0008048621	0.0006269199	0.0001778621	-0.0002581618	0.0006675074	-0.00060933095	-0.00046316217	0.00026042375	0.00024141614	-0.00017483819	0.00019256247	-0.00028905124	-0.0002654057	-0.00054546125	0.00029074526	0.00013003875	-0.00019729078	0.0006808373	-0.00023090348	0.00053554267	-0.00034468807	-0.00040660836	0.00020289668	0.00057042274	-0.00034259533	-0.00095437805	-0.00036015763	-0.00018469564	-0.0005111074	0.0005646788	8.7164575e-05	0.0010290133
Cramér–von Mises criterion_5	0.0004659215	-0.0004461361	-0.00049717544	-0.00017102082	0.00057569053	-4.8687663e-05	-0.00031644898	0.0003172852	4.636361e-05	0.000499226	0.00016558345	6.8229405e-05	0.00018880668	0.00030145873	-0.00020555289	0.0005009333	8.643925e-05	-0.000325886	-4.384632e-05	-0.00012912293	1.8009017e-05	0.0005902727	0.00039224286	-0.00023388167	-0.00037499508	-0.00038838913	-0.0003325255	0.0003987005	-3.2388825e-06	-0.00036273798	-1.381076e-05	0.00046368688	0.0001391211	0.00011483351	3.3050957e-05	-1.074496e-05	0.0007342532	-0.00021327603	0.00011587623	-0.00015085629	4.3069816e-05	0.00022520416	-0.00033366203	-0.0004765304	-0.000111709705	-0.00036649322	-0.0005817972	-5.0822615e-05	-5.5601497e-05	1.5220703e-05	0.00019575865	-0.00026206858	-0.00040676608	-0.00027638415	-0.0005477148	-0.00026776388	-0.000950275	0.0002557117	-0.0002514812	-6.2604915e-05	0.0003623006	0.00022572304	0.00038066646	-0.0002661609	0.00016905842	0.00012933997	0.00011657379	0.00018815818	0.0002787181	-0.0005993801	0.00026368222	-0.0005812381	-5.1256466e-05	0.00017959636	-1.7410986e-05	8.629003e-05	0.00032445564	0.0006892872	-8.962373e-05	-0.00025279608	0.0001387557	0.00037615144	0.00065922894	5.5091663e-05	0.0006422286	-2.7380473e-05	0.00019227967	0.00016888771	0.00017416714	-6.991797e-05	-0.0005602484	0.0003297783	0.00011346371	-0.0001037222	-1.1796417e-05	-7.087814e-05	1.4937743e-05	0.00050379016	9.033802e-05	0.0010119696	0.0003026528	-0.0004688598	-0.00040873405	-0.00031138991	0.00025472752	-0.00042036484	-0.00012921199	-0.00016715843	9.9871606e-05	2.4834508e-05	-4.0861967e-05	-9.477615e-05	0.0005354714	0.00018602223	0.00033900337	0.00014892919	0.00067140564	0.00013937733	-2.0505517e-05	0.00014007502	0.0001736301	0.00048384792	-7.029026e-05	0.00024049464	-0.00019122778	0.00030850936	-0.0004350076	0.0004434645	-0.00029423638	0.00041331115	5.5372224e-05	-0.00018573685	8.607155e-05	-7.4599964e-05	-0.0002621828	0.00051024347	0.00013472541	0.0005482465	0.00055177155	-0.00050534157	-7.534423e-05	0.0002066772	-0.00022980191	0.0002730721	-2.7098331e-05	0.00030918058	-0.00033133788	-0.00032946555	-0.00019625314	-0.00055879797	-0.0005670372	1.6938026e-05	-0.00034660357	0.0001535972	-9.553812e-05	0.00031905263	-0.00045711338	0.00012684999	-8.8824e-06	-8.315464e-05	0.0004586748	-0.00015643476	-0.00019814058	5.20433e-05	-0.00041259438	0.0006570515	-0.0006068987	0.00014340604	-0.00016423834	0.00013361713	-0.00028755664	-0.00024799042	-0.00029862206	-6.993191e-07	-0.000553032	-2.7433982e-05	0.00023558307	0.00021765854	-0.00062250916	-0.00018628768	-0.00037234035	0.000510391	-3.6402704e-05	-0.00051067444	0.00068742957	-0.00036401732	0.0004572135	-0.00041701522	0.00010420443	-0.00033214266	0.0004238002	-0.00011657752	0.00022797448	4.751839e-05	-0.00053062255	0.00014853374	0.0002763015	-7.050254e-05	0.00024927277	-0.0005135148	3.3265875e-05	-0.00088919024	-0.00027751864	0.00027996095	-0.00036602805	-0.0005193595	-0.00037670764	-0.0006106869	0.0002396739	0.00027239093	0.00016497097	-0.00017352142	3.9904236e-05	1.8339211e-06	0.00010284985	0.0003338817	0.00047589108	-0.00012322637	-0.00027634253	-0.00068546046	-0.00016578243	0.0002635484	-0.000110251545	-3.255556e-05	-0.0006262936	1.8760531e-05	-0.00035316267	-0.00033627055	0.00016230832	0.00019975046	-0.0003970209	-0.0005218648	0.00020131603	-0.0008484025	-0.00079901394	-0.00026091072	0.00032802197	0.000575333	0.000100273384	0.00023326493	-0.0005851242	-0.00040160687	0.00054192333	0.0001962461	1.3106178e-05	0.0005033187	0.00041092318	0.0003501616	-0.00047391132	-0.00021786301	-0.0002450459	0.00018563763	0.00018131323	-0.00014756508	0.0005282527	0.0001379775	-0.0005228877	-0.00030233111	-0.0004506129	0.0001807312	9.698905e-05	0.00039847483	0.00030332408	0.00013082409	0.0003396506	-0.00034770873	0.00020123018	-0.00046964784	0.00073998986	0.0008516741	6.1898514e-05	-0.00012377361	0.0005137654	-0.00019612066	-0.00060676085	6.494109e-05	-1.6824777e-05	-0.00021922452	0.000110850524	-0.0007596629	-0.00069063366	-0.00032415395	0.00036318728	0.00012766791	-0.00017782957	0.0007314205	-0.00017736577	-0.00040937986	-0.00023400066	-0.0001562699	-0.00031962487	0.0005239255	-0.00041125214	-0.00051644974	-0.0006041765	0.00010452829	-0.00043529292	8.926181e-05	-9.79697e-05	0.0006830997
Cramér–von Mises criterion_6	-8.645565e-05	-0.00022182947	-0.00041138454	-0.00044992764	0.0007801567	5.3101423e-05	-0.00010433025	0.00035863853	3.7458085e-06	0.00032617303	0.00017743994	-1.1136336e-05	0.00040843224	0.00023598081	0.000335298	0.00036650608	0.00040285042	-0.00050962425	0.00015220793	-0.00034023676	0.0002365325	0.00029910106	0.00032431525	-0.00012868203	-0.00019527966	-0.00016096837	-0.00018399875	6.4412285e-05	-5.4357395e-05	-0.0002108909	-0.00025325536	0.00039062492	1.787256e-05	0.00037313162	0.00013458756	-0.0001341363	0.00043013296	-0.00010464309	-8.273511e-05	-0.0001820278	-9.1287126e-05	-0.00023918647	9.572706e-06	1.1720979e-06	0.00024831897	-7.005305e-05	-0.00039274993	-9.959156e-05	-5.5512275e-05	-0.00017925294	-7.772559e-05	-0.0004759854	-0.00029231742	-0.0003606263	-0.0005187426	-0.00011770491	-0.00073458126	0.0003167673	-0.0002780027	-8.188891e-05	0.0003055984	1.889911e-05	0.00045393675	-0.00037775608	0.00010744004	0.00032217448	0.00035112223	0.00043159034	0.00017359063	-0.0005249831	-6.02455e-05	-0.0005354887	0.0003938805	-7.67518e-05	1.8068602e-05	0.00048055392	0.000564542	0.00024303937	-0.00011585807	8.1528764e-05	-0.00020331609	0.000477538	0.0006506223	0.0003612477	0.00017445892	-0.0002786127	0.00025998164	-3.394192e-05	-7.742607e-05	-0.0001233408	-0.00054723595	0.00047066767	0.0003637345	-0.0002974828	-0.00015087094	0.00037660656	9.1033726e-05	0.00015045627	0.00016606823	0.0006315037	0.00012654248	0.00012941804	0.00014566987	-0.00028107606	0.00032232667	-0.00020243166	0.00024684847	-0.00031694275	9.480867e-06	9.938167e-05	0.000102637816	-0.00019103823	0.00027639218	0.00013192502	0.0001433747	0.00020862806	0.00039093956	0.00024552213	0.00018915425	-0.00022901043	0.0005349355	0.00048130582	-9.9279234e-05	0.00034227467	-0.0005831587	4.3895285e-05	-0.00033243815	0.0002012434	-0.00016180136	-0.00013713457	-2.7022457e-05	-0.0004160577	0.00015910922	-0.0002928198	-5.8526548e-05	0.0003003668	0.00029313343	0.0004317834	0.0001908955	-0.00012187212	0.00015741761	5.8366182e-05	-0.00020914739	0.00016174799	-0.0003565338	8.062312e-05	-0.00014446481	-9.523321e-05	-0.0004734294	-0.00036986408	-0.0005971555	4.004185e-05	-0.00022103632	0.00013345835	-0.0005000746	0.0001319882	-0.00010211821	-0.00027636197	0.00013200377	0.00015911524	0.00022199829	0.00023784723	-0.0004804052	4.449781e-06	-0.00014528772	0.00020627522	-8.723687e-05	-5.1291114e-05	0.00034090225	8.065211e-06	-0.0001581826	5.2985903e-05	-0.00040466245	-0.00020658397	-0.00023592313	-0.00015910686	0.00027825043	-0.00029327182	-0.00031449768	-3.6985034e-07	-0.0005640612	0.00032857482	-0.00047892358	-0.000568383	0.0002787088	-0.00048740982	0.00021648966	-6.840237e-05	-0.0003017188	-0.0002473194	0.0005323184	7.478632e-05	-1.3376581e-05	-2.749062e-05	-0.000391575	0.00019185033	0.0002530662	-0.00022784952	-0.00021950941	-0.0004126766	-0.00030696054	-0.000513697	-0.00017816908	0.00016582556	-0.00019084629	-0.0003433367	-0.00018155234	-0.00024606427	-9.8343255e-05	-0.00028334622	-1.4954225e-05	0.00011758063	0.00012434258	-6.40372e-05	0.00015264834	0.00056557404	0.00031548203	0.0001428749	-0.0005415805	-0.00046047673	-9.088697e-05	-0.0002772086	-0.00044059393	-0.00019510921	5.5812918e-05	3.825406e-05	-0.00023500623	-0.00013440303	0.000475137	0.00012316785	-0.00023609507	-0.0006450115	-2.032967e-05	-0.00087484595	-0.00024085293	-0.0004551811	0.00031811057	0.00048499912	8.217047e-05	0.00011308158	-0.00014622252	-4.8854068e-05	0.00033500275	0.0002955503	-0.0003710309	0.00031591978	0.00032637225	0.00031419337	-0.00028681662	-0.00041907557	0.00034303946	5.9049766e-05	0.00019400519	-0.00013308924	0.0005672544	-8.889083e-05	-0.0003413417	0.00017896158	-0.00036292884	-3.5722285e-05	0.00019211524	0.00048785243	-4.0667903e-05	-7.356604e-05	0.0008428176	-0.00029095967	0.00019695822	-0.00035251398	0.00052658113	0.00047168697	6.465151e-05	0.0003165135	0.0003038293	-0.00056044623	2.0127229e-05	-0.00023673232	0.00013315797	-0.0003574396	0.00022289403	-0.00052122975	-0.00029051155	-0.0005190242	8.1657374e-05	-4.0957802e-05	0.00023344546	0.00046460208	-2.2427248e-05	-0.0001285566	-0.0004889351	-0.0002794538	9.4320436e-05	0.00021193655	-0.00021235523	-0.0006226091	-0.00015682216	-0.0003256178	-0.00042950985	0.0001507406	-0.00022668962	0.00064233027
Cramér–von Mises criterion_7																																																																																																																																																																																																																																																																																																												
Cramér–von Mises criterion_8	1.0315212e-05	-0.0002729867	-0.00045106374	-0.00047409337	0.0009252576	0.00015693883	-0.00026898138	0.00012298072	0.00010541382	0.00023209985	0.00027321055	-6.254587e-05	0.0004964708	0.00028953006	0.0004481167	0.00041321118	0.0004768246	-0.00053601887	0.0001856333	-0.00046288426	0.00017462342	0.0005334956	0.0006197085	-0.0001402659	-0.00040808	-4.9727336e-05	-0.00021728833	-0.000118653916	-0.00019025382	-0.00039655901	-0.00022023827	0.0003385209	6.7018795e-05	0.0002899213	8.769561e-05	-0.00012570641	0.00050701183	-0.00037064537	0.00013157444	-0.0002812736	-9.883885e-05	-0.00019851573	-0.00018744392	-5.313685e-05	0.00047295954	-0.00029078912	-0.00054040353	-0.00019370407	0.0001538834	-3.407157e-05	-0.00011268399	-0.0008429449	-0.00031015027	-0.0004910152	-0.00057708577	-0.00024095365	-0.00089949364	0.00041879254	-0.00034741036	-0.00020648295	0.00049941055	0.000107865264	0.00034796394	-0.00020502447	0.00034687316	0.0005450142	0.00050983805	0.0006051318	0.00050068065	-0.0007314559	6.619256e-05	-0.00086964655	0.000473684	5.605203e-05	0.00020601004	0.00039133686	0.0007105835	0.00040629174	-5.9822087e-05	0.0001282832	-4.672907e-05	0.00031420495	0.0008769435	0.0003156329	0.00034933857	-0.00020729423	0.00030809507	-9.120641e-05	-1.4051389e-05	9.064499e-06	-0.0006828319	0.0005214329	0.00024583295	-0.00012871093	5.4452266e-05	0.0005939189	-0.00013641006	9.463222e-05	0.0002845729	0.0005283505	6.262393e-05	4.318961e-06	0.00033251054	-0.0002909349	0.00029558357	-0.00020431532	0.00027209343	-0.0005086592	-4.400741e-05	-2.8097606e-05	1.6992752e-05	-0.0001464158	0.00049554656	0.00030322783	0.00025194703	0.00037101906	0.0005075681	0.0003936273	0.00038648694	-0.00025425636	0.00043088148	0.00075670367	-0.0002288231	0.00024038869	-0.0006824379	4.029323e-05	-0.00048587492	0.0005774371	-0.000217557	-0.00021966016	-8.838301e-05	-0.00033860523	0.00018247702	-0.00027004696	-0.00021450513	0.00030021873	0.00037793387	0.00047268564	0.00023859073	-4.8595703e-05	-2.0756463e-05	-2.4008172e-05	-0.0003626503	0.00020838018	-0.00034581716	0.00019421412	-0.00011917826	-8.300378e-05	-0.0006450462	-0.00031274115	-0.0008999153	0.00010851932	-0.00014080005	-2.3090546e-05	-0.00056735857	0.00013705065	-6.305792e-05	-0.0003963371	0.00014905444	0.00017360564	0.0002046639	7.941926e-05	-0.00030265396	-3.0684725e-05	-0.00013074648	0.00023865912	-0.00020338909	-5.9888266e-06	0.00047361414	0.00013653682	-0.00013393459	-6.684853e-05	-0.00040671506	-0.0001581902	-0.0003316487	-0.0002518867	0.00039392276	-0.0003293523	-0.00050332677	-0.000114289986	-0.000652133	0.00019380865	-0.0006358865	-0.0005625947	0.00017578265	-0.00062258844	0.00036683748	-0.00017935039	-0.00018801699	-0.0003366168	0.00037978098	0.000115503026	0.00015503101	-0.00014022329	-0.00032728302	0.00015446253	0.00044264787	-0.0005109511	-0.00014772393	-0.00060990447	-0.00041156664	-0.00031844198	-0.00021144499	0.00023689355	5.591353e-05	-0.0002918253	-0.00017661495	-0.00043171278	-0.00021011432	-0.0001973203	-8.0334554e-05	5.674703e-05	0.00025772175	-0.00023892644	0.00010904626	0.00059277273	9.480943e-05	0.0002976634	-0.00038565043	-0.00051764847	-0.00014384495	-0.00026964108	-0.00068322796	-0.00029636765	2.8283981e-05	4.29646e-06	-0.00037030847	3.0007935e-05	0.00055784354	0.00044866072	-0.00021005102	-0.00065854704	1.7899985e-05	-0.0010289482	-0.00034165688	-0.00055026304	0.00050123554	0.0008062166	-2.0609128e-05	0.00032964293	-9.811776e-05	-0.00011936477	0.00039467943	0.0003361868	-0.00057974254	0.0005433559	0.0006047755	4.4524055e-05	-0.0003459355	-0.00050978805	0.0005600818	0.0001039104	0.0004086581	-0.00023069014	0.00045185146	-0.00020806894	-0.00040174968	0.00010445126	-0.00047615773	9.3521194e-05	0.00015606535	0.00049748726	-0.00018197512	0.00014010644	0.001063037	-0.00025909886	0.0003609559	-0.0002004008	0.0004735171	0.0006301784	3.2944456e-05	0.000591275	0.00025229072	-0.0007857712	2.3302851e-05	-0.0004756624	-6.185927e-05	-0.000500545	7.316467e-05	-0.0009420465	-0.00042901956	-0.0006484983	0.00025191327	1.6678582e-06	0.00039683073	0.000553995	-5.029443e-06	-2.3767065e-05	-0.00045159346	-0.0003689977	1.0541492e-05	0.00029434255	-0.00018500294	-0.0008668814	-0.00022264392	-0.0003656302	-0.00046556655	-0.000117556534	-0.0002779256	0.00076205475
Cramér–von Mises criterion_9	8.159487e-05	-0.0002499325	-0.0005875284	-0.0005309874	0.0007899601	8.578286e-05	-0.0004452358	0.00051340845	0.00025076428	0.000551452	0.0001823584	0.00011262791	0.00034631582	0.0003480253	0.00022077399	0.000554771	0.00035271782	-0.0006720251	0.00024679248	-0.00035237288	0.00014413673	0.00028749285	0.00040306622	-0.00015814087	-0.00030305327	-0.0001584763	-0.00030307987	0.00028934286	5.0954135e-05	-0.00025901909	-0.00037866874	0.00041990835	-7.842012e-05	0.0002935055	0.00013071396	2.3406918e-05	0.00060367363	-0.00030869828	5.8869657e-05	-0.00035072907	2.4966363e-05	-0.00038285097	-0.00012641992	-2.6557034e-05	0.00025420118	-0.00013100205	-0.0003795217	-0.00011470731	-0.00011447948	-0.00017184853	4.4149572e-05	-0.0004661008	-0.0002830968	-0.00018334502	-0.0005452501	-0.00018011643	-0.0007823378	0.00055347255	-0.00041938838	-0.00019685697	0.00061200745	0.00011972471	0.00031143808	-0.00037519427	-9.044306e-06	0.0003225817	0.00040469432	0.0006507853	0.000121300975	-0.000496642	-0.00010471549	-0.00053391117	0.000507045	-0.00025554933	-7.466061e-05	0.00046809475	0.0005516591	0.00020237056	-7.2363387e-06	2.1170645e-05	-0.00038336753	0.0004797938	0.00068721257	0.0001964297	0.00034545982	-0.00030976642	0.00026546067	-4.7750955e-06	8.665939e-05	-0.00013162786	-0.0005682572	0.0006300494	0.00025431145	-0.00021440038	-0.00028875662	0.00040801975	0.0001368792	0.00033383942	0.00036793845	0.0008670612	0.00018569727	1.2063861e-05	2.1373768e-05	-0.0005309931	0.00025384902	-0.00044075304	0.00041969144	-0.00055119506	4.245854e-05	-3.5313158e-05	3.734618e-05	-0.00026345896	0.0006104987	6.1961844e-05	4.898407e-05	0.00015216623	0.00079029764	7.394438e-05	0.00020873215	-0.000108209286	0.0004857202	0.0004766661	-0.0001762853	0.0002780765	-0.00038790712	3.7695503e-05	-0.00046458945	0.0001471966	-0.00029020372	-0.00020375842	-0.00014061878	-0.00046201775	3.155073e-05	-0.00032407392	-0.00033994904	0.0005307148	0.00026029875	0.00051326194	0.00035642096	-4.3804803e-06	5.3533342e-05	5.190767e-05	-0.00014226584	0.0002603422	-0.00030591775	0.00016095227	-0.00023916278	-0.00016897757	-0.0005784081	-0.00041830968	-0.0005699651	7.438068e-05	-0.00032212422	0.00028315384	-0.00061309827	0.000114086535	-2.9242849e-05	-0.00045898033	0.0003096897	6.58014e-05	0.000577889	5.8977443e-05	-0.00046851285	-6.613862e-05	-6.415277e-05	0.0003207219	-0.000306973	-5.0192146e-05	0.00019502745	0.00015384876	-0.00033065418	4.678307e-05	-0.00062746514	-0.00039343414	-0.00047141968	-0.00024600924	0.00020866361	-0.00015952058	-0.00057374296	2.73649e-05	-0.0007763334	0.00038219904	-0.00076615775	-0.00066654163	0.00042736524	-0.0004411564	0.0001899151	-7.854411e-05	-0.00033045746	-0.00016590007	0.000630698	0.00016056694	1.9167783e-06	0.00012296443	-0.00058370543	0.00024238546	0.00017918328	-0.00023643587	-0.00019606441	-0.00042604475	-0.00035776987	-0.00066845835	-0.00038808555	6.668605e-05	-0.00013291328	-0.00057519483	-0.00036990189	-0.0006380394	-0.00018700004	-0.00016248523	2.517257e-05	-2.7026881e-05	0.00016767453	-3.117554e-05	0.00013383986	0.00061400514	0.00031495132	0.00023810913	-0.000595744	-0.0004902195	-0.0003285638	-0.00013153232	-0.00043399923	-9.9005745e-05	-0.000105638625	0.00032450387	-0.00033425746	-0.00031659464	0.00050966983	0.0002895226	-0.00027677414	-0.0007198399	-4.4335764e-05	-0.000920632	-0.0002800206	-0.0005171394	0.00044576355	0.00058417	-4.7213667e-05	6.28926e-05	-0.00035136702	-8.176185e-05	0.00045504054	0.0003022927	-0.00038594886	0.0002867176	0.0005894651	0.00040264183	-0.00025036454	-0.00066660723	0.000290423	7.812401e-05	-8.25694e-06	-0.0003350804	0.0008862569	-0.00012416903	-0.00035157346	0.0001311826	-0.0003050673	6.2516396e-05	0.0003420622	0.0005060507	5.0918246e-05	-0.000119461554	0.00088765915	-0.00031789413	0.00027220434	-0.00042846432	0.0005430205	0.00052024715	-1.1786357e-05	7.255005e-05	0.00045694053	-0.0005644364	3.1909076e-05	-0.0004023567	0.0002544557	-0.00040992434	-6.772707e-05	-0.00059071125	-0.0003762261	-0.000584021	0.00014487025	0.00016561437	0.00032617422	0.0006351935	-0.00021823209	-5.0037554e-05	-0.0004818823	-0.00047433426	0.00018304901	0.0002643573	-0.00025172558	-0.00064504956	-0.00036529047	-0.000260583	-0.00060736504	0.00032371117	-0.0002956671	0.0008021994
Cramér–von Mises criterion_10	0.00040315048	-0.00040597722	-0.00044298932	-0.00015617143	0.0006565179	-1.9224892e-05	-0.0003682083	0.00027645312	0.00013075824	0.00045499878	0.0001931168	0.00014281661	0.00022389466	0.00028706616	-0.00026083505	0.0004887541	6.335509e-05	-0.0002915242	-8.062961e-05	-0.00012847019	4.08707e-05	0.0006440084	0.00033738674	-0.00017597077	-0.00047023062	-0.00040011952	-0.00028716997	0.00040957873	5.216248e-05	-0.00045660522	6.6228116e-05	0.00043048675	0.0001570498	0.00015573992	1.2485928e-05	1.22140755e-05	0.00081430067	-0.0003011378	0.000121983154	-0.00025139612	4.873794e-06	0.00026345547	-0.00039846898	-0.00047358513	-6.221946e-05	-0.0004702063	-0.0005230539	-0.00012105956	5.1851207e-06	2.367484e-05	0.00022910887	-0.000316091	-0.00045635586	-0.00019975417	-0.00053832005	-0.00033282826	-0.00092508894	0.00020606634	-0.000273847	-2.486293e-05	0.0004358332	0.0003236659	0.00036692244	-0.00024187117	0.00018646097	0.00015900725	3.2223932e-05	0.00016387276	0.00030073198	-0.0005585282	0.00023802835	-0.0005367924	-5.9045684e-05	0.00013208759	-5.170305e-05	4.531443e-05	0.0002523423	0.00070642633	-0.00016966215	-0.0003499348	0.0001413467	0.00032508053	0.000714616	4.0937863e-05	0.0005980624	-4.5606736e-05	0.00027922218	0.00013842291	0.000262251	-3.995866e-05	-0.00056664855	0.00025649474	0.0001128295	-2.5695817e-05	6.851826e-05	-4.616082e-05	1.6602688e-05	0.00048063428	8.8514935e-06	0.0009914819	0.0003278765	-0.00047349106	-0.00044067937	-0.00031651653	0.00025287806	-0.00035889092	-0.00018614814	-0.0002360116	1.5697684e-05	8.0033595e-07	1.9442608e-05	-2.7915159e-05	0.0005103262	0.00014139975	0.00031309816	0.00020492842	0.0006181751	0.00014406691	4.7379406e-05	0.00014261207	0.00016832081	0.0004936282	-6.7633926e-05	0.0002992984	-0.00013408803	0.0004065768	-0.00047208875	0.0004950459	-0.00036469309	0.00038296872	0.0001391557	-0.00011315273	0.00016418472	-7.794684e-05	-0.00028119155	0.0005653167	0.00014823565	0.00058794854	0.0006490162	-0.00047640828	-0.00015141947	0.00016960061	-0.00025712143	0.00029338888	3.827327e-05	0.0002830119	-0.00041268198	-0.0003119718	-0.00020596253	-0.0005264123	-0.0005198838	1.6750913e-05	-0.00031029087	0.00019543295	-5.306305e-05	0.00028662875	-0.0004717208	0.00016226353	-8.99548e-05	-0.00013523121	0.0005236767	-0.00020579022	-0.00012901545	5.766911e-05	-0.00048933807	0.00061981776	-0.0006002795	0.00023922816	-0.00013458742	0.00017533284	-0.00029246486	-0.00027898175	-0.0003342761	-5.1806824e-06	-0.0004936825	-8.0523736e-05	0.0002890897	0.00022864196	-0.0005804695	-0.00019586389	-0.0004582966	0.0004742697	5.40874e-06	-0.00047749633	0.00072693237	-0.00045359586	0.00043602247	-0.00036343222	0.00017288515	-0.00033493957	0.000446954	-0.00017251313	0.0002990725	8.174429e-05	-0.0005536102	0.00021496612	0.00031709194	-0.0001536804	0.00019917056	-0.0006021705	-2.0566713e-05	-0.0008591662	-0.00026507123	0.00029395343	-0.00029465358	-0.00046911402	-0.0003755201	-0.0007349497	0.00031226486	0.00033490552	0.00016881443	-0.00017676475	-7.3512574e-06	-6.1513885e-05	6.899689e-05	0.00042577446	0.0004215883	-4.952238e-05	-0.00028998088	-0.0006400512	-0.00014640867	0.0003017976	-0.00010515293	-6.295463e-05	-0.0006422776	4.227907e-06	-0.00034488132	-0.000359344	0.00018851503	0.00025154086	-0.00036442137	-0.00054205046	0.00017194757	-0.00083586224	-0.0008335936	-0.0003496479	0.00029548514	0.0006418782	9.030111e-05	0.00017639772	-0.00060800515	-0.00045391743	0.0005498709	0.00012295473	-7.246783e-06	0.000548132	0.0004731336	0.00037934844	-0.0004421962	-0.000312176	-0.00028072664	0.000103627506	0.00024574524	-0.0002445761	0.0004825847	0.00018588162	-0.0005183068	-0.00037577134	-0.0005195725	0.00019021462	2.1041029e-05	0.00048629087	0.00027110105	0.0001361722	0.0003131976	-0.00028466183	0.00026177042	-0.0005629454	0.0007275373	0.0009490209	5.874934e-05	-9.7746895e-05	0.0005670942	-0.0001985337	-0.00057709415	-7.9448055e-06	-5.754124e-05	-0.00029311836	0.00013317056	-0.00089201756	-0.0007821832	-0.00026931506	0.0003159259	0.0001397669	-0.0001020076	0.000844478	-0.00022611364	-0.00051467546	-0.00019622866	-0.00018404817	-0.00037561517	0.0005542253	-0.00046112356	-0.0005540137	-0.00061992696	0.00018901893	-0.00043432103	5.14709e-05	-0.00015400596	0.00067385193
Cramér–von Mises criterion_11	0.00021582516	-0.000366028	-0.00044529233	-4.963275e-05	0.0006388895	-0.00018894178	-0.00057372276	0.0001264275	0.00017698269	0.00056818355	-0.00011521491	-6.369016e-05	0.00014130441	-3.9110968e-05	-5.0288978e-05	0.00011045614	-1.5498392e-05	-0.00016371533	-0.00032471586	-6.916717e-05	0.00023016005	0.00024029615	0.00037535303	-5.714844e-05	-0.00062720524	-9.297561e-05	-7.739062e-05	0.0003170131	-3.2302276e-05	-0.0002467059	0.00019804812	0.0006031292	0.00035010252	-0.00015927602	8.7313056e-05	-3.120546e-05	0.00078931166	-0.0004787012	-0.00024666524	-0.0005397154	1.1680832e-05	0.00031313728	-0.00040297044	-0.0004678133	0.00025774754	-0.00045479822	-0.00041545636	-0.00025672963	-2.4466355e-05	-6.477915e-05	0.00010119328	-0.0008154352	-0.0005339148	-0.0004916319	-0.0008545392	-0.00065062725	-0.0007248174	0.0001504122	0.00015211983	-0.00029326204	3.481192e-05	0.00019169238	0.00044564024	-9.628432e-05	0.00027349245	6.410913e-05	0.00035275755	0.0003495199	0.00010567774	-0.00061625475	0.0002863194	-0.00060646445	-7.1565504e-05	0.00024357162	8.039718e-05	-0.00016595644	0.0002502664	0.0005937406	-6.8589434e-05	-0.00030011218	0.00014119605	0.00014233474	0.00086841243	-0.0002611297	0.00062447274	-5.591988e-05	0.00059688307	7.995422e-05	0.0001195029	-0.00011175034	-0.0005033383	0.00012726785	0.00021947494	1.2631212e-05	7.884892e-05	6.512408e-05	-5.8550024e-05	0.00026222866	-8.601514e-05	0.0007407337	0.00019343753	-1.171967e-05	-0.0006060025	7.382656e-05	9.803391e-05	-0.00041100505	-0.00019331946	6.1396404e-06	-8.653975e-05	0.000122044636	-0.00037256425	-0.00011157093	0.00055227807	0.0003873418	-9.507394e-05	1.5027808e-05	0.00036592843	0.00020718823	1.48812605e-05	3.9704446e-05	0.00026084326	0.0006107477	-0.00020747288	0.0003455425	-0.00015869075	0.00048264966	-0.0003176711	0.00021309555	2.801635e-05	0.00031806075	0.00014233441	-4.846675e-05	-6.944145e-06	9.090798e-05	-0.000331581	0.0005175397	-9.141553e-05	0.00077474193	0.0005199394	-0.0003869007	-0.00060414337	0.00011028308	-3.991534e-05	0.00039997173	3.3042495e-05	0.00022356471	-0.00059149443	-0.00021975611	3.7604706e-05	-0.0008243264	-0.00046345065	0.00016748624	-0.0003433276	0.00025211423	-9.37476e-05	5.540122e-05	-0.00039939405	-8.2832245e-05	-0.00016074425	-0.0005631412	0.00019812341	8.324783e-05	0.00033206606	-4.6033416e-05	-0.00019050401	0.00079325726	-0.00050497666	0.0002915182	0.00016369089	0.00013392713	5.653946e-06	-0.00050025084	3.6966747e-05	-0.00016979674	-0.00018607156	-0.00012949879	3.3837427e-05	0.00031978692	-0.0003202752	0.00029298058	-0.0006318379	0.00017348783	0.00018073356	-0.0006761965	0.00037635752	-0.00014831695	0.00025394617	-0.00013505179	0.00032397173	-0.00012365931	6.957919e-05	-0.00016482755	0.00030801594	-0.00027250143	-0.0004016241	0.00019713833	0.00014481676	-0.00013732963	-4.810528e-05	-0.00086617254	-0.00013738406	-0.000727858	-0.00026808164	0.00010242551	-0.00048127258	-0.00047830917	-9.160035e-05	-0.0006062377	0.0002304698	-0.00016913941	-0.0002010013	-0.00055272557	0.00023728426	1.4791342e-05	0.00023485268	0.00062581315	-5.524016e-05	3.2966127e-05	-0.00044450356	-0.00067375554	0.00019267983	0.00037899028	-0.00012400755	-6.0128295e-05	-0.00021267429	9.9088196e-05	0.00016598233	0.00011557156	-0.00023433892	0.0003426712	-0.00024768498	-0.00043884644	0.00011330171	-0.00069408584	-0.0008141583	-0.00048618644	0.00037744726	0.0006289569	-0.00019961645	8.093681e-05	-0.00020778814	-0.00048741687	0.00058089884	0.0003558301	-0.00012940764	0.0009759804	0.00083062815	-8.462861e-05	-0.00029758117	-0.00026706897	-0.00011708177	2.1823067e-05	0.00056187855	-0.00013219076	0.00020576146	0.00024623921	-0.0005583944	-0.00017716753	-0.0004663184	-6.2154955e-05	-0.00030285504	0.00019036263	0.00014145572	-0.0001806977	0.00020301009	6.842106e-05	0.00023082357	-0.0004620566	0.00063066185	0.0005284163	3.939624e-05	0.00020683344	0.0003933768	2.7616838e-05	-0.00037640822	0.00034733574	-0.00040830096	-0.00041765405	0.00011349926	-0.00053307705	-0.0005370478	0.0001877714	0.00021187321	-0.00021498698	0.00014190731	0.00091134704	-0.00034250916	-0.00037038996	-6.602465e-05	-0.00025225518	-0.0005431062	0.00020180753	-0.00040451653	-0.00050354487	-0.00044730166	0.000161599	-0.00047810836	-1.8182713e-05	0.00031061436	0.0005216854
Cramér–von Mises criterion_12	6.411401e-05	-0.00039804738	-0.00064006797	-0.00053173676	0.0010278006	-5.5248634e-05	-0.00056579214	0.00024119428	0.00018517146	7.799562e-05	0.00019561074	5.577414e-05	0.0004290973	0.00022240997	-0.00040956752	9.885086e-05	0.00013535596	-0.00048157744	-0.0001540848	0.00015617098	0.000281974	0.00032666302	0.00017872112	-0.00016903075	-0.0002939517	-0.00030680554	6.929686e-05	4.1583353e-05	-8.0203085e-05	-0.00058868347	0.00026780533	0.0003568711	0.000620871	1.4020586e-05	-7.848612e-05	-0.00022809603	0.0010363323	-0.00033698723	-0.0002717123	-0.0004381345	-0.00021769722	0.00020552204	-0.0004940224	-0.00028495977	0.00037266087	-0.00058202125	-0.00072573364	-0.0002883867	-0.00016029057	0.00037298078	0.00020671744	-0.0008532449	-0.00014837664	-0.0005614676	-0.0005182159	-0.0005191157	-0.0006211302	0.00048121624	-0.00032459098	7.523551e-05	0.00015429652	0.00023350219	0.00038249954	-5.6020566e-05	0.0001234767	4.240029e-05	0.00048741026	0.00054815883	0.00021473583	-0.0005123579	9.542198e-05	-0.00064973463	-0.00015480988	8.989175e-05	0.0002078542	-3.377616e-05	0.0005158374	0.0005103124	0.00021059318	-4.730472e-05	0.00030537983	0.00025308278	0.0009889107	-2.4183477e-05	0.0004336548	6.825298e-05	0.0005632539	0.00018568808	0.00027940905	6.6578024e-05	-0.00046125246	0.00047997778	0.0004221493	-0.00020543535	0.0001622046	-0.00012918428	3.3226486e-06	0.0001544023	0.00013194876	0.0006506433	0.0002850514	-5.5539265e-05	-0.0005417235	8.141168e-05	0.0004349723	-0.00011314661	-0.00013273729	1.6185352e-06	-6.5331464e-05	-0.00022201856	-2.6118274e-05	-9.575721e-05	0.00024306132	0.00011761851	0.00026674473	-2.7739572e-05	0.00060695247	0.00026724584	0.00030401003	7.855165e-05	0.00026947854	0.0006962259	-5.6616394e-05	3.0864918e-05	-7.2235394e-05	6.798175e-05	-0.0002034087	0.00018267403	-0.0003125877	0.00025052906	-0.00031753277	2.1579028e-05	3.6819724e-06	0.00022135797	-3.0802723e-05	0.00016130222	-7.80679e-05	0.00062331406	0.00071456004	-0.0005277759	-7.0066126e-05	-5.620665e-05	-0.00044701208	0.00026521547	-0.0002603032	-3.6756013e-05	-0.00064715056	-0.0001389131	-0.00014144635	-0.00047837303	-0.00015535777	0.0002622483	-0.00053658575	0.00038171382	-0.00035880154	0.00026280215	-0.00022812263	0.00028415307	-0.0003950473	-0.00028613085	0.00033588512	-0.00012558907	0.00036571815	-0.00028333085	1.5823424e-06	0.0007241898	-0.00075545255	-4.899855e-05	9.991383e-05	0.00037971063	-0.00018151871	-2.186153e-05	-2.663964e-06	1.657857e-05	-0.00027206482	-9.677685e-05	0.00034488915	5.2695264e-05	-0.00014645224	-5.129586e-05	-0.0005671779	0.0005576416	-0.00011936337	-0.00039831258	0.0005168569	-0.00023280633	0.0005111043	4.1074827e-06	9.626974e-05	-0.00029134806	0.0002019676	-3.5312245e-05	0.00057313417	-0.00038952677	-0.00036445886	0.0003341877	0.00030684617	0.00017014144	-0.00013952801	-0.00046716316	-0.00040998717	-0.00054489385	-0.00042164672	7.705622e-05	-0.0006479433	-0.00032952282	-0.00033766124	-0.00093317044	-9.0452944e-05	0.00017045382	0.00013536272	-0.000535285	0.00016610717	-0.00038206525	5.343355e-05	0.0006075153	0.00023844067	-9.1784066e-05	-0.00044691243	-0.00039094494	-9.6029005e-05	0.00012640345	-0.0005011161	-0.00018452696	-0.00022557697	0.00015453793	-0.00025643024	-0.00015933684	-0.00012917587	0.0001077054	-0.00026054715	-0.0007377583	-5.5681747e-05	-0.0008911624	-0.00050890236	-0.00046170058	3.5654484e-05	0.00081581256	-6.6538436e-05	0.00030397376	-0.00030768733	-0.00060704054	0.0007905981	0.00018114441	-5.355533e-05	0.00056295254	0.00043004588	0.00026106148	-0.00021332008	-7.589482e-05	0.00010507517	-3.0134775e-05	0.0005163925	-0.00027732167	0.0004132704	0.00026730043	-0.00083859276	-0.00030422214	-0.00050751155	0.00028393208	-0.0002599501	0.0005995924	0.00029263823	-0.00026883572	0.0004481874	-0.00011892537	-2.367801e-05	-0.00058019254	0.00027627315	0.0008901131	-0.00010067041	8.520382e-05	0.000780528	-9.9393634e-05	-0.00043416076	8.562572e-05	-0.00028650684	-0.00043154488	0.00032497678	-0.0005998549	-0.00044691956	-1.5825111e-05	0.00027026993	-0.0001234415	0.00026807984	0.0006251022	-0.0003188614	-0.00014062425	-0.00013690755	-0.000446156	-0.0004003071	0.00056428066	-0.00014185825	-0.00087049074	-0.0006248635	-0.0001194296	-0.00057569804	0.00016412644	0.00026535298	0.0008506484
Cramér–von Mises criterion_13	0.0002056003	-0.00057241047	-0.00032538947	-0.0002724601	0.0010588714	-7.4488526e-05	-0.0005055254	0.00047308946	0.0004947397	0.000106790845	0.0002664519	-0.00012472307	0.00038671153	0.00018012257	-0.00037661495	0.0005768946	4.32881e-05	-0.000276071	6.620364e-05	-8.660933e-05	0.00033859911	0.00023130799	0.00035762473	0.00021923769	-0.00044726254	-0.00014035228	8.945108e-06	8.142249e-05	0.000114709575	-0.00042015474	0.0002441875	0.00071070314	0.00018169044	-0.00022093352	-0.00031602205	-0.000331562	0.000749707	-0.00054622	-9.4229275e-05	-0.00039791738	-0.00017952011	0.00015924532	-0.0006871191	-0.00043627826	0.00037240196	-0.00031531721	-0.00078751735	7.286397e-06	-0.00019839691	0.00048369722	0.0005093628	-0.00046738703	-0.00025960233	-0.0004516697	-0.0005891856	-0.0008064761	-0.00056000234	0.00022988414	-0.00033858116	-0.00035010444	0.00030918454	0.00028022905	0.0005422064	-0.00012907633	-0.0001464636	-0.00015874779	0.00027518196	0.0006102662	2.8285016e-05	-0.0006062923	9.977961e-05	-0.00057131995	-0.00014842693	0.00023250419	-0.0001306298	-7.3148854e-05	0.0003239983	0.00036075167	-0.00018709354	-0.00039389715	-9.299906e-06	-5.0309754e-05	0.00045736952	-7.668461e-05	0.0007000385	-0.00025049382	0.00028916172	-0.00028661473	0.00036589758	-0.0002096986	-0.00076920004	1.0709977e-05	0.0002802387	-8.812197e-05	0.00023470733	0.00029018722	-1.0702235e-05	0.00013349671	0.00010084399	0.00070268364	0.0005958957	-0.00039644178	-0.00045404598	-0.0002538813	0.0003836864	-0.00023709558	-0.0004895837	-0.00037293584	-6.4401225e-05	-7.2019924e-05	-0.000210475	-1.4871358e-06	0.00038470377	0.00027906048	0.0004090755	-0.00018767177	0.00042543307	-7.89583e-05	0.00013299714	0.00011710738	0.00019837591	0.00038943585	-0.000120265424	0.00025662256	-3.1454558e-05	0.00019300176	-0.00039072678	0.00016501742	-0.0003746689	0.0004180402	0.00017370326	0.00013563914	1.0387456e-05	0.00021408481	-8.423094e-05	0.00050568813	-0.00020016255	0.00037573779	0.00024206337	-0.00013060874	-0.00016599627	-0.00020610788	-0.00027670347	0.0005323925	-0.00015334718	-0.00013392016	-0.00034584836	0.0001896958	-0.00025374204	-0.00089889514	-0.00010682944	0.00015477807	-0.0006135516	0.00034517114	-0.00035019426	0.00025070127	-0.00054619287	0.0001998989	-0.0004185606	-0.0005239423	0.00036819009	-0.0002802281	-3.1175814e-06	-0.00014167129	-4.3291748e-05	0.0006436766	-0.00046657337	0.00022490938	0.00029275034	7.5830353e-06	-0.00030349172	-0.00020785154	6.178707e-05	1.869174e-05	-6.831795e-05	0.00023352844	0.00017964638	-0.00013034053	-0.00024005218	-0.00011945286	-0.00023103847	0.0006141406	0.00016286626	-0.0004794307	0.00050173356	-0.00051733735	0.00015088853	-0.0004051121	0.0002879774	-0.00028714535	0.00028115895	-0.0002536006	0.0003071531	-0.00018394731	-0.00046411855	0.00026022366	0.00027520565	-0.00011306605	-0.00020617865	-0.00048608208	-0.0004487864	-0.0008865273	-0.00065789575	0.00025023855	-0.0004152493	-8.16106e-05	-0.00044693158	-0.0009259349	0.00013410013	1.6984122e-05	1.3742163e-05	-0.00025470945	1.9312172e-05	-0.00029079407	0.00016411854	0.0007016531	0.00020317099	3.439786e-05	-0.0005023056	-0.0006658912	-0.00017028028	0.0004244424	-0.00014859586	2.8739467e-05	-0.00041317492	-9.38358e-06	-0.00020838498	-0.0003045783	9.000608e-05	9.387632e-05	-8.877014e-05	-0.00049349037	0.00025074236	-0.000980655	-0.0007740234	-0.0006138527	0.00017342661	0.0004964771	-0.00016900375	0.00023532871	-0.00045528205	-0.00074413547	0.00040079394	7.142431e-05	0.0002852397	0.00054125447	0.0006655267	7.5543445e-05	-0.00031278117	5.786095e-05	-6.98545e-05	-8.790985e-05	0.0005745289	-0.0003717121	0.00059614953	-0.00010155133	-0.0008555569	-0.00063586415	-0.000277343	0.00018345729	-0.00027704265	0.0004012686	0.00028000676	-0.00011992677	0.00067258335	-0.0003671342	0.0002751465	-0.00032715185	0.00023346803	0.00082739675	-8.959873e-05	-8.619155e-05	0.00079404487	-0.00023411181	-0.0005072045	-3.880222e-05	-0.00041154816	-0.00031009404	0.0005469158	-0.0005242983	-0.00055299257	-0.00022741531	0.0004145914	-7.48126e-05	0.00011817001	0.0006124016	-0.00026428435	-0.0004681551	-2.6753078e-05	-0.00013474499	-0.00038175375	0.0006318329	8.7023785e-05	-0.00051506294	-0.00016813942	-0.0002233809	-0.00013553209	0.0002761807	0.0001459673	0.00060455874
Cramér–von Mises criterion_14	-6.634168e-05	-0.00037423975	-0.00039156605	-0.0004856268	0.0008035547	0.00017321065	-0.00040302632	0.0005393623	0.0003002569	0.0005104167	0.000124395	-4.001514e-05	0.0006061546	0.0004092428	0.00037183057	0.00040096187	0.0005334643	-0.0005295862	0.00012899918	-0.0004959866	0.00023566274	0.00040993246	0.00049250363	1.884986e-05	-0.00029225723	-1.5468135e-05	-7.713545e-05	4.6545196e-05	3.3249304e-05	-0.00044771304	-0.00018969679	0.00040704827	4.7815523e-05	0.0004571558	0.0002394402	2.0918633e-05	0.00034250144	-0.00044843537	0.00010941363	-0.00041613853	-0.0001421522	-0.00031430088	-0.0001097368	2.5960568e-05	0.00034321222	-0.0001220618	-0.00022130195	-0.00043217547	2.9477537e-06	-0.00017937808	8.516086e-05	-0.00055336114	-0.00047322494	-0.00030641383	-0.0004706477	-0.00018482184	-0.00075181905	0.0006122273	-0.0003441128	-0.00028959292	0.00028971536	0.0003921513	0.00044486343	-9.337724e-05	0.00014365726	0.00050185394	0.00023243856	0.00083571667	0.00026558404	-0.0006204369	-0.0001711559	-0.00076698017	0.0005258624	-6.695905e-05	-0.00018563369	0.00041285713	0.0006313931	0.0001919282	-1.15126795e-05	-9.976062e-05	-0.00045703608	0.0002781248	0.00082142703	0.0004199566	0.00024882753	-0.00023499757	0.00021019104	-0.0003468722	-5.273319e-06	-0.00018341499	-0.00050548883	0.0006312797	0.00014183701	-2.1492922e-06	-0.0002222811	0.00057431555	0.00017594126	-1.1901324e-05	0.0003878494	0.00068033277	0.00018558087	0.00022713606	0.00020635594	-0.00037629178	0.00010966081	-0.00031284764	0.00030696962	-0.0008423014	-0.00033412708	-0.00015181661	4.93674e-05	-0.00032324402	0.00047327532	0.00023603383	-0.00012437587	0.00035320612	0.0004448387	0.0003171888	0.00032589879	-0.00030890285	0.0003854935	0.0004440302	-0.00014198179	0.00020058581	-0.0005656421	-9.575274e-06	-0.0005925982	0.0005604631	-0.0004645367	-0.00048522057	3.4675057e-05	-0.0002587759	0.00025047045	-0.00015663849	-0.0003528867	0.00048241083	0.00033070965	0.00050115964	0.00023944557	5.1381103e-05	5.778419e-05	-0.00024095736	-0.00023014705	-1.2916789e-05	-0.0003777691	0.00014322545	-8.8903784e-05	-0.00011002086	-0.0006305387	-0.0005209744	-0.00042817226	6.6450406e-07	-0.00030762868	0.0003259024	-0.0005648904	6.929497e-05	9.2193775e-05	-0.0003875658	0.0003056688	-3.7711576e-05	0.00035879377	0.00029904343	-0.00028611018	-0.00013058068	-0.00024060842	0.00013111407	-0.00032698375	-0.00031427722	0.00020455834	0.0001940139	-0.00020293177	6.17099e-05	-0.0007066082	-0.00023431993	-0.00017966432	-0.00031710067	0.00048746125	-0.00031535325	-0.00054669514	4.378644e-05	-0.0008235068	-3.334867e-05	-0.0007397015	-0.0006731119	0.00047862265	-0.0006299823	0.0002992948	3.9166865e-05	-0.00036256935	-0.00020069066	0.0005679713	0.00024440532	0.00022095368	-9.576907e-05	-0.00021586225	0.00022386994	0.00027772808	-0.00043358628	-0.00042302028	-0.00050358754	-0.00053220993	-0.0005216864	0.00012626365	9.964539e-05	4.945856e-05	-0.00047949897	-0.00035179165	-0.0004096803	-0.00025124554	7.863741e-05	2.6506024e-05	-7.5147094e-05	0.00018291881	-0.00015217424	0.0002580358	0.0008381797	0.00022366262	0.0004895637	-0.0002868303	-0.00037419572	-0.0003294194	-0.00035176583	-0.00034365806	-0.00032355363	7.1129456e-05	0.00035634905	-2.6679267e-05	-0.00022757707	0.00054441707	0.00046278947	-0.0002595953	-0.0006180562	0.00010067272	-0.00084122695	-0.00040916502	-0.0005044033	0.000422346	0.00053168996	-0.00030114056	-8.193515e-05	-0.00011833331	-0.0002955074	0.00036162243	0.00021669487	-0.00042645365	0.00026210977	0.0007743424	0.0001702272	-0.0002178438	-0.00050952233	0.0002484821	0.0002693535	0.0004269966	-0.00042660572	0.00047084742	-0.00025680178	-0.00036610904	1.9607098e-05	-0.00034441715	0.00014480544	-0.0001626153	0.00067885604	-5.462345e-05	-6.9942034e-05	0.0010725502	-0.0004201512	0.0005781575	-0.0004301887	0.00047881965	0.00054060627	8.9591354e-05	0.00033391497	0.00033880697	-0.0006542302	0.00015727822	-0.0007388558	0.00018727215	-0.00074858626	-2.090915e-05	-0.0008388751	-0.00035416693	-0.00071872043	0.00015328568	0.00010351954	0.00041546187	0.0007929937	-0.00046677975	-1.9769235e-05	-0.0005879587	-0.00040197285	0.00018701011	0.00039113188	-0.00013862553	-0.00081645756	-0.00015265061	-0.0002340442	-0.0005541721	0.00012284533	-0.00061987876	0.0006635951
Cramér–von Mises criterion_15	-0.000104584025	-0.00033564493	-0.0002718474	-0.00036250503	0.0008320045	9.577528e-05	-0.0002740896	0.00035864828	0.00015161488	0.00023373106	0.00030192672	8.25574e-05	0.00030421928	8.063667e-05	8.45552e-05	0.00037200883	0.00029245386	-0.00047460213	0.00026469014	-0.00025931725	5.7119527e-05	0.00040643656	0.00022382614	-2.187949e-05	-0.00022314096	-0.00031911628	9.977574e-05	2.451132e-05	-4.3273053e-06	-0.00020339488	-9.279763e-05	0.00025957962	-5.685594e-05	7.0918315e-05	8.077965e-05	-2.7989883e-05	0.00051215873	-0.00029600377	-7.884246e-05	-0.00022278678	-0.00012564358	-0.00018734059	2.1641386e-05	-6.0018883e-06	0.0005692616	-0.00035817936	-0.00039927787	-5.01155e-05	0.00023513101	6.963341e-05	0.00011705964	-0.00053135434	-0.00024704984	-0.00039690657	-9.2440285e-05	-0.000246048	-0.0005893866	0.0004990535	-0.0004567034	3.5828896e-05	0.0005883055	0.00018034455	0.00039992252	-0.00030362175	0.00013275417	0.00022040532	0.00014520834	0.00046328767	8.983766e-05	-0.00034358696	-2.9870627e-05	-0.00057340966	0.00041405048	-0.00020647197	-7.2464165e-05	0.00031671187	0.00037065166	0.00019765225	-0.0001362846	3.406816e-05	-4.0420255e-05	0.00050327415	0.0007055197	0.00017556243	0.000102957514	-0.00038990242	0.00025481253	-8.1584025e-05	0.00013739598	-0.00010636554	-0.00058724085	0.00038280396	0.00048084994	-0.00031056238	0.00014229828	0.00027815634	0.00010966606	0.00023660435	0.00018718217	0.0005802808	0.00020027944	2.6918144e-05	0.00020942082	-0.00046033334	0.00043194648	-0.00015803207	0.00012302239	-0.00018843912	0.00010261214	6.020195e-05	0.00017995371	-2.4584517e-07	0.0001501147	8.0213584e-05	-5.675966e-05	0.00031995244	0.0004506134	0.00027665577	0.00033777798	-0.0002621279	0.0005072414	0.00050744496	-7.637068e-05	0.0004442698	-0.00045573074	9.79955e-05	-0.0005332438	0.00014985779	-0.00020661509	3.0365247e-05	-5.234468e-05	-0.00021806895	0.00013364175	-0.00031942673	-0.00013890577	0.00026274595	0.00020514411	0.0004254178	0.00021553	6.217592e-05	3.654899e-05	-0.00013744514	-0.0001223174	0.00013695248	-0.00035506484	8.334789e-05	-0.00018896499	3.6385176e-05	-0.00059561705	-0.00031884148	-0.0004908233	-0.00015683618	-0.00016527773	0.00019298191	-0.00062243175	-7.098584e-05	-6.231701e-05	-0.00027459583	1.0567202e-05	6.2647785e-05	0.0003645945	0.00018496242	-9.847889e-05	-8.085661e-05	-1.8187373e-05	0.0003117315	-0.00021055859	8.5554195e-05	0.00030359966	0.0001315209	-0.0003275184	-0.00011421347	-0.0003981284	-0.0003221771	-3.323609e-05	-0.00017734215	0.00032104691	-0.00022923714	-0.00020640869	-1.9899006e-05	-0.00081066485	0.00031706927	-0.00044546256	-0.0005312269	0.0003709005	-0.0006646831	0.00039318658	-2.7811551e-05	-0.00014832547	-3.6460497e-05	0.000405648	-7.54875e-08	0.00018454024	-0.000115699804	-0.0004401738	0.00019842417	0.00032819776	-0.0001727891	-0.00017056469	-0.00032179308	-0.0004098494	-0.00042356967	-0.00022398244	1.7956238e-05	-0.00010371578	-0.00018073345	-0.00041180628	-0.00051492493	5.0794184e-05	-0.00015734337	7.593316e-05	2.2372203e-06	-1.6681113e-05	-0.00017312527	0.0001676243	0.00056743907	8.597548e-05	0.00022998915	-0.0006526038	-0.00038557115	-4.8135564e-05	2.280274e-06	-0.00044395446	-0.00015568966	0.00011200746	0.00012677902	-0.00031949693	-0.00016489223	0.00050695776	0.00028995043	-0.00020481159	-0.0004756255	-0.00016539356	-0.0010493452	-0.00027849723	-0.0006113005	0.0003686418	0.0006212703	1.5389438e-05	-3.7804064e-05	-0.0003234486	-4.0467356e-05	0.0005333721	0.00019338107	-0.00033791654	0.00028690853	0.00033641173	0.00042733765	-5.44828e-05	-0.00055166555	0.00028306624	-8.817137e-06	0.00015755364	-0.00024250452	0.00050576765	-0.00011924897	-0.00038858538	0.00010179087	-0.0002736077	-2.970314e-05	0.00023530672	0.0006462684	-6.4751395e-05	-3.3679386e-05	0.0009502631	-2.210549e-05	0.00024611608	-0.00037170065	0.00038898137	0.0006562652	-3.5716826e-06	0.00026173514	0.00045703523	-0.00054603454	-3.4305824e-05	-0.00029049267	4.237514e-05	-0.000306063	0.00016024659	-0.00050198066	-0.0003070589	-0.00038098	4.9189784e-05	-9.865047e-05	0.0003116114	0.0006919136	-0.00019479672	-0.00015516642	-0.0002533409	-0.00037582748	0.00011156705	0.00048239666	-0.0001933117	-0.00078379025	-0.0001526455	-0.00024366326	-0.0003570635	0.00016386698	-6.461934e-05	0.0006394535
Cramér–von Mises criterion_16	0.0006780676	0.0005567431	0.00033619071	0.0006658549	-0.0011850445	0.0011237698	-0.00022282962	-0.00040845468	-0.0016658163	0.000868117	0.00031996018	0.0011659297	-0.00050459517	0.0008711529	-6.722662e-05	0.0010250162	-0.0002653732	6.201232e-05	0.0006283298	-0.00091911526	-0.000473912	0.0013885424	0.0006646689	-0.00080870424	-0.0005826926	-0.001200568	-0.0013334503	0.0014356156	0.00034982382	0.00026431284	-0.0006404673	-0.0008512185	-0.0015508832	0.00062249467	0.0008842683	0.0006057781	0.00015194181	0.0009037964	0.0010070055	0.000776872	0.0007778214	0.00022713325	0.000585854	-0.0012557333	-0.0015672916	-0.0008865769	0.0008781742	0.00032592198	-0.0003465042	-0.0011352442	-5.8969326e-05	0.0015735808	-0.00028337978	0.00053453125	0.0012033402	0.0016666224	-0.0011784042	-0.0003789127	-0.001080759	0.00088010775	0.0016288009	0.0012581588	-0.00040434112	-0.00081326335	0.0007974532	0.00072346645	-0.0011905737	-0.0016558561	0.00028488005	-0.0010639841	0.001219398	-0.0009069459	-0.00061202334	-0.00028292305	8.373368e-05	0.00031143424	-0.0013749832	0.0005912791	-0.001146946	-0.0013218995	-0.0006154238	0.0016596554	-5.8782363e-05	0.0011987115	0.0007257265	0.00014425413	-0.0015466855	0.0013565966	6.4186155e-05	0.00057790003	0.0007117017	-1.154596e-05	-0.00043080273	0.00022548664	-0.00055438513	-0.0004693114	-0.0007933284	0.0008064186	-0.0002682454	0.0016663272	-1.7033082e-05	-0.0013926945	-0.00057924667	-0.0010556709	9.975953e-05	-0.0002834789	0.0012927663	-0.00046745333	-0.0006866338	-0.00014370726	0.0009227186	-0.0008479763	0.00095108687	-0.0013393647	0.0010799599	0.00082537916	-2.3313678e-06	-4.3614793e-05	-0.00087875396	0.001440159	-0.00059279293	0.00016823995	0.00074768433	0.00043977288	0.0009865443	0.0009365946	-0.00029707488	0.001642907	-0.0012278208	0.0014077619	0.0011293225	0.000162826	0.0010013044	-0.0011079888	-0.0013011816	0.001265992	0.00060093484	0.0004877974	0.0011726939	-0.0013284605	0.0010742974	0.0010126594	0.0003621572	0.0001518859	0.001608451	0.0013985364	0.00028216385	-0.0016624933	0.00016884092	0.0011989353	-0.000984366	-0.001211854	0.001027057	0.00018765086	0.0012522679	2.0087235e-05	-0.00026253177	0.00034072448	0.0011147428	0.00148976	0.0015866474	-0.0004628575	-0.0013511634	0.0011786944	-0.0013172514	0.00026904594	0.00066816044	0.0007380353	-0.0015118651	0.0002870203	-0.0008222221	-0.00019547042	-0.001268002	0.0010848346	-0.0013520309	-0.0008246307	0.0004257091	0.0006482437	-0.0015377428	-0.0016538271	0.0001522498	0.0004746669	0.0002310241	0.00019203774	0.0016104307	-0.00089969294	0.0009203278	-0.0011642744	6.6806875e-05	-0.00033324174	0.0016482178	0.00038807763	-0.00055580697	0.0015600475	-0.00089870027	-0.00027406766	0.0009812416	-0.0009527174	0.0015968055	0.00019751798	0.0010876283	-0.001136161	0.0014782833	0.0008152713	0.00088146806	-0.0009611199	-0.0011114274	-0.00019876573	0.001613192	0.0014739754	0.0009820244	0.0009328004	-0.00016639105	0.0010713255	-0.00066614605	-0.0005877627	0.0014288294	2.9557006e-05	-0.00022801498	-0.0011602703	-0.001298549	0.00022778969	0.0010627465	-0.0005466894	-0.001618902	-0.000538878	-0.0015897291	-0.0015143144	0.0009733479	0.00017586093	-0.0004912378	0.0010156904	0.0004978655	-0.00035191726	-0.0016633259	0.00050583086	0.0006918382	0.0004679916	0.00023246286	-0.0010599475	-0.0013260862	0.00017902195	-3.6591624e-05	-0.00019530763	-0.0007975102	-0.001469465	-0.0013542048	0.0014509911	-0.001628133	-0.0011415976	-0.00078120286	0.0001257589	-0.00047835478	-0.00054642325	0.00059030496	0.00054102903	0.00044362774	-2.7389537e-05	-0.0014668967	0.00037234786	0.0007810036	0.0008010609	-0.00050862174	0.00084505224	-0.00056915934	-0.00069542235	0.00012902691	-0.001480365	0.0014102178	0.0013872853	0.0002228614	-0.0015119669	0.00011395328	-0.00019467543	-0.0015092745	-0.00079070067	0.0015537388	0.0011287866	-0.0013792486	-0.0012767495	-0.0015840628	-0.0014829885	0.00034043496	0.0016284874	-0.001299439	-0.00024757403	0.00030517674	-0.0015621654	-0.00027164796	0.0008525229	-0.00027340034	0.0008881935	-0.0016460081	0.0010533633	-0.001241232	0.0008345938	-0.0006067576	-3.2775924e-06	-0.0015017859	0.0006019109
Cramér–von Mises criterion_17	-0.0004458844	0.0007964386	0.00032237265	0.0013050871	-0.001290815	0.000105468505	-0.0014559164	-0.0013086083	-0.0013884696	0.0015472255	-0.00153003	-7.31109e-05	-0.0010001367	-0.0010859099	0.0011960496	-0.0012447718	-0.00073849416	0.0008288654	-0.0008361877	-0.000563297	0.0006618242	-0.0010337309	0.00089246704	-9.5770316e-05	-0.0015245406	0.0006422953	-7.47739e-05	0.00088022195	-0.00015696464	0.0015237085	0.0001504528	0.00018463627	-0.00039256676	-0.0012676013	0.0013332309	0.00034526087	2.008154e-06	-0.00016158368	-0.001204885	-0.0009530434	0.0008186637	0.00052522396	0.00055884523	-0.0012211023	0.00035251025	-0.0007941287	0.0015237604	-0.00048809845	-0.0005244131	-0.0016659681	-0.0008264628	-0.0014224842	-0.00074873306	-0.0012167353	-0.0006939746	-0.00024017112	2.3224258e-05	-0.0007128374	0.0014750421	-0.0007302868	-0.00077732693	0.0004663176	6.796595e-05	6.025754e-05	0.0013196421	0.00015407782	0.00073262793	-0.0005419733	-0.0008854452	-0.0014103438	0.0015091441	-0.0013249785	-0.0006871422	0.00038598105	0.000876335	-0.00095619104	-0.0013874385	-8.483541e-05	-0.0005405095	-0.0010229638	-0.00061632757	0.0005631806	0.0008639968	-0.0006136938	0.0008841888	8.2375205e-05	0.0003592801	0.0010057845	-0.00079230254	0.00014714991	0.0010915635	-0.0007869072	0.00020906996	0.00045544884	-0.0004924012	0.00019839795	-0.0012442446	-0.00050401496	-0.0008374452	0.00016183751	-0.0008236669	0.0013779342	-0.0015711859	0.0012863874	-0.0008293053	-0.0005961637	0.0012497384	0.0009854542	-0.0013000584	0.0005837586	-0.0014293225	-0.0013499109	0.0012027982	0.00013628745	-0.0013690726	-0.00031402466	-0.0015158114	0.00033511312	-0.0010737428	0.00082271337	-3.7658145e-05	0.00087095745	-9.1349604e-05	0.0007172375	0.00083892787	0.0013930317	0.00062943134	-4.8794787e-05	0.0011284361	0.0010183143	0.0011483949	0.000550942	-2.546882e-05	-9.485997e-05	-0.0016035183	0.0009793298	-0.00083697215	0.0016085581	0.00039823295	-0.00079141534	-0.001642046	0.0006567542	0.0016653939	0.0007913831	0.0015770664	0.0010418532	-0.00079071126	-0.0011091992	0.0016302442	-0.0005885494	-0.00064576726	-0.0003074421	0.0008288363	0.0005277387	0.0010081606	-0.0013672777	0.00017142878	-0.0011298502	0.0006900061	-0.0010777	-0.00036667267	0.0012713708	0.0014153257	0.0005564792	0.0004757532	0.001309683	0.0012399774	0.0010517754	0.00027780453	3.8586088e-05	0.0009664909	-0.0015230849	0.0009594551	9.713846e-05	0.00049363484	-0.001118481	-0.0011058046	0.0011951133	2.3422817e-05	0.0012792394	-0.0008889982	-0.0013300244	0.0012829732	-0.0010001626	-0.0004930177	0.00093198044	-0.0001721299	0.00020600868	0.0009733263	0.00093443994	-0.00061603123	0.00043419114	-0.00050214655	-0.00056542695	1.32165505e-05	-0.00038103433	-5.240963e-05	-0.0008546127	0.000113150265	-0.0013864946	0.00038672416	-0.00034831237	0.0014602208	-0.00033389617	-0.00023824608	-0.0010162907	0.00059209083	0.0005735071	0.0011224218	-0.0015502942	-0.0012368701	-0.0013229642	0.0013014224	0.0015291569	0.00032898874	0.00061247003	-0.0014321415	0.00052448804	-0.001155151	-0.0013624963	0.00073598203	0.0006909458	0.0009496189	-0.0005297315	0.00095871807	3.0283736e-05	0.001475453	0.0013351789	-0.0015637756	0.0007226431	0.00020918029	0.001634914	0.00014599031	0.0004987412	-0.0015467145	-0.00031340055	0.001183611	0.00039046392	-0.0015070424	-0.0016327129	0.0010752161	-2.1974769e-05	0.00014957608	0.0012019445	-0.0015304752	0.0010976252	0.00079076295	-0.001332871	-0.0007604428	-0.00087095547	0.00020066641	-0.00036506768	0.0014184449	0.00012788888	-0.0010706345	0.0009031745	0.0002031017	0.0011642335	-0.0011473721	-0.0011418696	-0.0011623726	-0.0009745088	-0.0012864937	-0.0010561673	-0.0012302846	0.001423075	-5.6654193e-05	-0.0008750323	0.00082896504	-0.0011363432	0.0001067428	0.0003155151	-0.00092835136	0.0011622278	-0.00030515922	0.0013409827	-0.00055081956	0.00038157258	-0.0014972765	0.0008768934	-0.000113249764	0.0012595302	-0.00028388135	-0.00050003576	0.00016405061	0.00015363973	-0.0003931964	-0.000696452	0.00050957606	0.0004432808	-0.0012783463	-0.0012263133	-0.0013063663	0.0013561764	-0.00020547984	0.0006700742	-0.0008694813	-0.00042119934	0.0012859359	-0.00031108846
Cramér–von Mises criterion_18	-0.0013561513	0.0006043222	-0.00084628054	-0.0015875371	0.0010426523	0.0009076273	-0.0014083323	-0.0006200078	-0.001339337	-0.0013939022	0.00033492382	0.0006436748	0.00072662043	0.00048321582	-0.0009596216	-0.0013144034	0.00016663205	-0.001078307	0.00018759862	0.00078873173	0.0009727079	-0.0005155298	-0.0002873243	-0.0007670641	0.00047498086	-0.0006406842	0.00080535084	-0.0007723565	-0.0004443695	-0.0005281569	0.000568996	-0.0012929122	0.0012320437	-0.00022782154	0.00033843605	-0.0008360827	0.001484132	0.0006886999	-0.0013551675	-0.00034355815	-0.0005576045	-0.000120467375	1.25336755e-05	-0.00012398075	0.0010419902	-0.0015574667	-0.00033790348	-0.000678041	-0.0013393583	0.00096059154	-0.00019331787	-0.0016493434	0.0015644956	-0.0016357494	0.0013239656	0.0005488976	0.00064534746	0.0012719871	-0.0013852229	0.0014806985	-6.041934e-05	0.0007171764	-0.00031087844	0.00030184	0.0004195477	2.3824732e-05	0.0015405444	0.0006498602	-0.00023109645	-0.0007869625	0.00036375952	-0.0015845995	-0.0011866085	-0.0005360981	0.0016410771	-0.0001631092	0.000205987	-0.0005854048	0.0011345862	0.000493881	0.0003687748	0.0012276688	0.0015869855	0.00080798345	-0.0002607189	0.0008274124	0.00015750482	0.0016401877	0.00016713445	0.0012171201	0.0013440786	0.0013293523	0.0014251162	-0.00085295044	7.732774e-06	-0.00096745224	-0.0008730086	-0.0011509733	0.0004703382	-0.00037870414	-0.00027398366	0.0011150166	-0.0011855111	0.0013318982	0.0011923251	0.001190987	0.0016132314	0.0009583275	-0.0011728087	-0.0014806206	0.0006493533	-0.0012550285	-0.00065250235	-0.0014820521	0.00080183963	-0.00057062897	-6.9667745e-05	0.0006954587	0.0006610298	0.0010557966	1.4153599e-05	0.0013838266	0.0008137895	-0.0011708282	0.00135766	-0.0010949757	0.0013150057	-0.00023132401	-0.0009151883	0.0006131241	-0.0016108082	0.0009712166	3.8287973e-05	0.0006878399	0.00020115134	-0.0011580947	-0.0007568863	0.00069999055	0.0015659563	-0.0016366662	0.0015624175	-0.00034218418	-0.0007771864	-1.7154338e-05	-0.00018300758	-0.00052007125	-0.0011246478	-0.00062414113	0.00055593794	0.0014871709	0.0012027898	0.0002611302	-0.00033071218	0.001305336	-0.0005821632	-0.00012287224	0.0011990574	0.0010720616	-0.000715812	0.0005843619	0.00045989783	1.8349405e-05	0.0016172384	-0.00086730556	0.0016282713	0.0008952783	-0.0002628781	-0.000991325	-0.00010485774	0.0015132873	-0.00015654517	0.0013472509	0.0007216708	0.00121539	-2.2324912e-05	-0.00092214945	0.00076050573	-0.0004074365	0.0010663605	-0.00078641897	-0.00050103816	0.0009748985	-0.00051760837	0.00066714064	0.00034997828	0.00042504395	0.0013708187	0.0010409643	-0.00039288553	-7.169256e-05	0.00017829917	0.0012112831	0.001088563	-0.001267579	0.00023620813	0.00044126192	0.00091976684	0.0009902137	-0.0004353862	0.0010075618	-0.0012488946	0.0007494722	0.00053883035	-0.00048611188	-0.0012382709	-0.00012357268	-0.0008842745	-0.0013880896	-0.0008031147	0.00048726518	0.00078131416	-0.0012183212	0.0008743597	-0.0008519827	-0.00075952604	0.00050268235	0.00032994355	-0.0002240129	-0.0011696044	0.00033436716	-0.0009962709	-0.00082457537	-0.0013130327	-0.0012761236	0.00088130205	0.00036298216	-0.0010590227	-0.00031427143	-0.00093279727	-0.0006871518	0.00013200722	-0.00015855701	-0.00086791033	-0.00068371854	0.00028482152	-0.00016648542	-0.0008671457	0.0015115978	-0.0007085744	-0.00029449098	0.00047582109	-0.0007397172	0.0014077717	0.00015383039	-0.0010753615	-0.0013805414	-0.0016127313	0.00074126973	-0.00025487653	0.00027608944	0.0015336081	-0.0006768147	0.0011455291	-0.0007428969	0.00017441914	0.001029542	-0.0014780883	0.00040190562	-0.0013945309	0.00093465275	-0.0009049429	0.00148087	-0.00037939858	-0.0015849954	0.00024077958	0.00029899637	-0.0015836636	-0.0015838479	-0.0012973676	0.0010338376	-0.0007336572	-0.00041426264	0.0013945556	0.00040016495	-0.0006516743	-0.00022927742	0.00017994504	0.0002982274	-0.0002284115	0.00047622586	0.00042751955	3.7951202e-05	6.6498986e-05	4.9237227e-05	0.00092108594	-0.0015638298	-0.00025130983	0.00068214233	8.427874e-05	-0.000720124	-0.0004215521	0.00094852573	0.00026958334	-0.0008454992	-0.0012708511	-0.0010160975	-0.0014550192	0.00067265553	0.0010143677	0.0016626891
Cramér–von Mises criterion_19	5.694572e-07	-0.00019507913	-0.00045733404	7.934644e-05	0.00063528406	0.00026445746	-0.00026769735	0.00058085914	7.900258e-05	0.00088543596	0.00041276385	0.0005892613	-1.27854755e-05	0.00046879094	-0.00011962706	0.00069611386	-5.232168e-05	-0.00069097744	0.0002056841	-9.068162e-05	0.00020319139	7.262708e-05	-5.4196462e-05	-0.0002757133	-0.00027070197	-0.0006407279	-4.509331e-05	0.0005089009	0.00016528423	-0.0003265185	-0.00020944604	0.00047486098	-0.00047660284	0.00022011383	-0.000105616884	1.5360385e-05	0.0009003505	-9.841607e-05	2.4466146e-05	-0.00020139237	2.852527e-05	-6.9033194e-05	-0.0002064954	-0.00028757416	0.00021273302	-0.00043771797	-0.00047625462	0.00022319725	0.00020585151	-0.0003192321	0.00018984237	3.729004e-05	-0.00023146118	-0.00022897145	1.4903746e-05	1.0495447e-05	-0.0008548802	0.00044564554	-0.00048403727	0.000308874	0.0008850867	-0.000104121355	0.0004748921	-0.00073728786	-2.4469176e-05	-1.2208079e-05	-0.00039529186	0.00019306652	-1.31386505e-05	-0.00029976937	-0.00015857711	-0.0003470945	8.194143e-05	-0.0004912557	0.00016517518	5.408575e-05	0.00017780137	0.0004378573	-0.0003781863	7.037276e-05	-0.00015903663	0.0009474637	0.0004923678	5.462049e-05	0.00033917784	-0.00020926066	4.293431e-05	0.0006573849	0.0005362352	-0.00023533407	-0.00057445746	0.00038296534	0.00037573065	-0.0005714449	0.00018683804	0.00020453776	0.00019788757	0.0005781172	0.00015949151	0.0012563865	0.00026374985	-0.00020932328	-0.00023834375	-0.0009746642	0.0004349527	-2.3782184e-05	0.00020295553	-0.00018099553	-0.00010872995	0.00016860566	0.00051103235	-0.00019638997	0.00060262333	-0.00025150288	0.00021283687	0.0003361993	0.00065694517	-5.0726067e-05	-0.00020318138	0.0004862086	0.00020339724	0.0006647217	3.6044792e-05	0.0007749541	5.5384844e-05	0.00014196332	-0.0003020397	0.00020629421	-0.0005968857	0.00046989167	0.00016511972	-0.00036037306	0.00023844547	-0.00031139972	-0.0005837289	0.0006453601	0.0001079316	0.00057296245	0.00052834273	-0.0006103222	-5.263323e-05	0.00055812334	-0.00018656332	0.0001001682	-0.0001168741	0.0004421207	-0.0004639687	-9.237734e-05	-0.00028601554	-0.00021719534	-0.00034856613	-0.00037631832	-0.0002576071	0.00088005094	-5.588534e-05	-7.620147e-05	-0.00018520468	0.00018771683	0.0003333756	0.00031220997	0.0011101844	-0.0002575228	-0.00017822438	-4.3258697e-05	-0.00044862283	0.00046632154	-0.00021621038	0.00041670748	0.0001230546	-6.7688394e-05	-0.0004329908	0.00014716007	-0.00082816184	-0.0004951308	-0.000875061	-0.0002796127	0.00057927973	0.0003139822	-0.0003366648	0.00030966336	-0.0006578852	0.00063838	-0.0002380454	-0.00059594214	0.0007311784	-0.0006241393	0.00029499477	5.212211e-06	-0.0002657412	6.894436e-05	0.0005919814	-0.00013368708	0.000104571576	0.00043985323	-0.00096827745	0.00020335431	0.00032068364	0.00010638523	-0.00010699719	-0.00038248714	-0.00010361117	-0.000651298	-0.0003981529	-0.00022533417	-8.465315e-05	-0.0008379842	-0.00045462852	-0.0007228566	0.00025088628	2.965451e-05	0.00076008204	-4.9367313e-06	-0.0001220175	0.0004267484	-6.327295e-05	0.00037211907	0.0004059743	0.00023267337	-0.0008526339	-0.00045630647	-5.7507947e-05	0.0004559572	0.00027166627	-0.0002558118	-0.0006981235	0.0003234773	-0.00054106646	-0.00082147226	0.00045614745	0.00029394712	-0.0002938897	-0.00056235737	6.462125e-05	-0.001050749	-0.0005527971	-0.0008100318	0.00016854875	0.0007992343	0.00019639244	-0.00047980924	-0.0009105263	-0.0001351011	0.00069273065	0.0004018458	5.1639345e-05	-3.078021e-05	0.00019326575	0.0009959152	-0.00070042827	-0.0009811446	2.4061417e-05	-0.0001686888	-0.00040531502	-0.00027985685	0.00092204305	0.00036983617	-0.0005485214	0.00014885579	-0.00012318794	-3.747419e-05	0.0006306024	0.0008588737	-6.874881e-05	-0.0002250144	0.00053777307	-0.000102930586	0.00016954532	-0.0009826657	0.0006752803	0.0010638942	0.00010993731	-0.00025739	0.00084926083	-0.0005486778	-0.00048579945	4.73425e-06	0.0004111831	0.0001588751	8.890042e-05	-0.0005107427	-0.0008556406	-0.0003720344	-1.0053487e-05	0.00034831892	3.894909e-05	0.0008653238	-8.8768094e-05	-0.0004996487	-0.00032992777	-0.00051333057	9.623521e-05	0.0007252507	-0.00068935845	-0.00035630877	-0.00044222974	0.00010324912	-0.0005075871	0.00056369754	-0.000112206886	0.0009066711
Cramér–von Mises criterion_20	-0.0014288985	0.00066989305	-0.00066768157	-0.0004354092	0.00083800306	0.0006616731	0.0007314687	0.0013104894	-0.0010433855	0.0013563352	-0.0005790922	0.0011011763	-0.0010866629	0.00066955975	-1.6029554e-06	-3.1927724e-05	-0.0007175544	-0.000702022	0.0013609821	0.001550746	0.00034792649	-0.0015675644	-0.0016082636	0.00071699766	0.0012352876	-0.0010186426	0.0013038365	0.00021800246	0.00019141397	-4.018018e-05	-0.00023116216	3.1590465e-05	-0.001077075	-0.0003494497	-0.0013830857	-0.0010397125	0.00094118976	-5.214042e-05	-0.00081688055	0.001420046	-0.000802524	-0.00026672342	0.00046518192	-0.00019733416	-2.5607398e-05	0.000891675	-0.001135388	0.0006578056	0.00039515627	-0.0014692937	-0.0005802327	0.00133893	0.0010372527	-0.00010345733	0.0016104423	0.00029109867	-0.0009154802	-0.00030305056	-0.0006353516	0.0016456775	0.00045086464	-0.0016016407	0.00012583862	-0.0015101724	0.00023429212	-0.001631369	-0.0004941639	-0.0015350906	-0.0012811628	0.0009292748	-0.0012146068	0.0006001914	0.00020049239	-0.0013124365	0.0011373108	-0.00036660183	0.00020495807	-0.0009107381	-0.0013813522	0.0013196414	-0.00023584768	0.0015688146	-0.00072664715	-0.0011233245	-0.00083379354	-0.00132078	0.000106423504	0.0008764137	0.0015458809	-0.00019265423	-0.0007992163	-0.00047663815	0.0009481659	-0.0016656194	0.0011439616	0.0007257284	0.00083347206	0.0010941953	0.0005903593	0.00039970406	0.00029247135	0.0016539032	0.00053752435	-0.0016502544	0.0005395256	0.0015284857	0.00014157048	0.0013137733	-9.252919e-05	0.0005722086	0.0012573448	0.0007279375	-0.000369657	-0.0006354355	-0.0010736868	-0.0013569018	-0.0002713242	-0.0010108921	4.5976605e-05	0.0016382457	-0.00014237929	-4.517389e-05	-0.001121596	0.0010305787	0.0008098491	0.00041712038	0.00013860682	-0.0014635992	-4.3084137e-06	0.00043257402	0.0016527426	-2.8789713e-05	-0.0006644951	-7.2757357e-06	0.00017206985	0.0003906019	-0.00074831734	-0.00016521585	0.0008747603	-0.0009746464	-0.000725835	0.0011539344	-0.0008176853	8.275972e-05	-0.0005032873	0.0006004857	-0.00029781234	0.0013999355	-0.0005697793	0.0008963444	0.00046825412	-0.00048589276	-0.0010139555	0.0013753199	-0.00080194406	-0.0012491482	-0.00063997915	0.0016640488	0.00021542946	0.0009729919	0.0006057567	-7.1835e-05	0.00031841977	0.0009231872	-0.0005601291	0.0004190426	0.0009449801	0.0010375531	0.0008621712	-0.00028163314	0.0013735943	0.0015950438	-0.00095292076	-0.0011537127	-0.0005869779	0.00070227706	0.0013098316	0.00027976703	0.0011989998	0.0012918368	-0.0010108354	0.0015997437	-1.781264e-05	0.00037127372	0.00049826293	0.0004399798	-0.0008089503	0.00018408855	-0.001329247	0.00089608744	0.0011737547	-0.0008767913	-0.0007623851	0.00029581736	-0.0014489066	-0.0005268972	-9.140141e-05	0.001424284	-0.0012385618	0.0007406845	-0.00015161495	0.000482763	-0.0015294595	-0.0010616559	-0.000349065	-0.0016220936	0.0013118386	-0.00032582533	0.00012953595	-0.0011556284	0.0006872322	0.0013892958	0.00020986689	0.0014590236	-0.0009917112	0.0001879721	0.0004166506	0.0006612595	-0.0010770486	0.00062671065	0.0004039584	0.0014881776	0.00093247375	-0.0009854661	-3.327953e-05	-1.677086e-05	-0.00038513367	-0.0015814446	0.00094687525	-0.0012852994	0.001357649	-0.00040275202	-0.0011441234	-0.0014484441	0.0009437495	-0.0012166937	-0.0014935068	0.0009059836	0.00096828135	-0.0011521329	-0.0015413179	0.00086859067	0.00076671125	0.00077244465	0.0011199702	-0.0011070521	-0.0013413355	0.001582242	-0.00095968874	-0.0014209632	0.0015929607	-8.5458676e-05	-0.0011274277	0.00019001965	0.0011179771	0.0010428319	-0.0016312471	0.0013548651	0.00050217845	-0.0009799342	0.0012952803	0.00059664855	-0.0015259506	-0.001192162	8.823e-05	0.00019773301	-0.0010923403	-0.0016314758	-0.0002891304	0.0005239367	-0.00026603957	0.0006654098	0.0010161673	-0.0002640755	-0.00020783619	0.0011495639	0.00025258362	0.0014758072	0.00076259085	0.0015019625	-0.00067525875	0.00049340754	-0.00033979118	-0.0004971616	0.0007407225	0.0005472293	0.00087469234	-0.0015923075	-0.0009131352	-0.0014490033	0.00063118985	0.00043489845	5.60306e-05	0.0011423068	0.00015004576	-0.0009958687	-0.0003395347	0.0013325486	0.0015027763	0.0006649505
Cramér–von Mises criterion_21	0.00014805023	-0.00051473634	-0.0002383949	-0.0001844419	0.00022577433	-0.0002443916	-0.0003499205	0.00024591127	0.00021147955	0.0003346182	0.000245977	0.00056617736	4.6516052e-05	2.1347256e-05	-5.4733813e-05	0.00069569	5.108151e-05	-0.00061343476	-0.00026622068	-8.3781044e-05	0.00037538246	0.000100257654	0.00024349423	-0.0001638695	-0.0007460213	-0.0008174391	-0.0005722287	0.0007290006	0.00043436297	-0.00017835168	-0.000136343	0.00025320932	5.1246832e-05	0.0004480312	5.3194373e-05	-0.00021946033	0.00084417197	-0.0005469219	-8.7921006e-05	-0.00040182477	0.00032610793	-6.2563e-05	-0.0001552749	-0.0004237322	-0.0002703651	-0.00013896565	4.3048265e-05	-2.0161158e-05	-0.00033112164	-0.00010122703	-0.00015446344	-7.714223e-05	-0.00042706548	0.00020339846	-0.00065008603	7.2885664e-06	-0.00062439404	0.00015650618	-0.0003869402	-0.00025128794	0.00077875605	0.00023373208	-7.1793775e-06	-0.0006550669	-0.00017478537	2.6652311e-05	0.00036678466	0.00051446736	-2.5668161e-05	-0.00049828476	-0.00028189726	1.43017205e-05	0.00046101742	-1.7061247e-05	-9.916322e-05	0.0003269229	-3.3523054e-05	0.00013013592	-0.00025850246	-0.0002322392	-0.00020876425	0.00032937492	0.00047746673	0.00014454433	0.00024549544	-0.00044676237	0.00039331807	0.00051904767	0.00016253194	0.00023344415	-0.00017430724	0.00049638696	-0.00017630699	6.205976e-05	9.87919e-05	-0.00019917215	-0.0002632504	0.00027991852	-4.2621316e-05	0.00096341386	-6.7978566e-05	-0.0006201413	-0.0007704103	-0.00021462416	0.00018300113	-0.0004665092	-0.00020452842	-0.00064106775	6.0011724e-05	-0.00016936778	0.00038218964	-0.00031199388	0.00074748794	-0.00031833755	0.0005679561	0.00039898732	0.00080606784	-8.1216516e-05	-0.00037055148	-3.0706247e-05	0.00058641087	0.00041551888	-0.0004027708	0.00046167738	-0.00027147468	0.00016866924	-0.00019970344	7.7452045e-05	-0.0007221121	-0.00014739082	-0.0003229969	-0.00015153529	-8.180176e-05	-0.0003416069	-0.00020874415	0.0007238035	0.00025668094	0.00070867006	0.00081285596	-0.0006815784	-0.00017613688	0.00030585498	-4.2229407e-05	0.00041528465	0.0003951231	4.9684077e-05	-0.00043720737	4.3248023e-05	5.6330504e-05	-0.00024309002	-0.000573868	0.00034443138	-0.00012680712	0.00045572288	-0.0001915165	0.00012595356	-0.00024613316	-1.9930407e-05	0.00038713918	0.00026164236	0.00072180066	-0.00043542098	-0.00039199897	0.00021843812	2.5450725e-05	0.00022951813	-0.00013267747	0.00019783156	-0.0003983945	-6.125211e-05	-0.00058179797	-0.00027181266	-0.00041569056	-0.00026409514	-0.00064766523	-0.00015830292	-0.00012517624	0.00053138664	-0.0008517255	-0.00021137513	-0.00033976606	0.000585047	0.00020598831	-0.00043242535	0.0003088266	-0.00016308845	7.008315e-05	-0.00021668771	0.00016178067	-0.0004686035	0.00046180448	-0.00014158784	-0.00021569617	0.00022906085	-0.0002795535	0.00018720777	0.0001236649	-0.0003386491	-5.3441992e-05	-0.00024265764	0.00018288662	-0.0006676422	-0.00048169628	0.00024003729	-0.0005424829	-0.0006988709	-0.0007079246	-0.0008551501	0.00023136457	0.00041951158	-3.984952e-05	8.672451e-05	-0.00024350536	-0.00014544948	-0.0002836574	0.00013191637	0.0004301185	-2.8505483e-05	-0.0005755165	-0.0005873567	-0.00039530432	0.0002911738	-0.00011823166	-6.363381e-05	-0.0005948969	-0.00016976567	-0.00039804375	-0.00074563536	7.348851e-05	0.0005293615	-0.00019916207	-0.0006869072	0.0003297829	-0.00032589154	-0.00039870178	-0.000652396	0.00029853944	0.00024340238	0.00017479746	-9.132445e-05	-0.00018643934	-0.00035083012	0.0006194814	-0.0002906797	-0.00028470022	0.00066042313	0.0006760024	0.00046859696	-0.00035612998	-0.00029101182	9.103065e-05	-0.00010754281	0.0001713153	-0.0004000059	0.000748638	0.00015621018	-0.00042076272	2.142662e-05	-0.0006502545	0.00018902835	0.0003250455	0.0007024811	8.284619e-05	-0.00022414706	0.0005718987	-0.00035410948	0.00022628298	-0.0007255915	0.0006479409	0.00065232354	0.00023736364	-0.00024423513	0.0006909058	3.2173677e-05	-4.8367514e-05	-1.7544698e-05	0.00041143116	-0.00018241604	-0.00030615038	-0.000886847	-0.0007064567	-0.0003883007	-0.00022651876	0.00047523383	0.0001944551	0.0009327186	-0.00041867426	-0.00024630336	-0.00041705676	0.0001557008	0.00012523618	0.00015935168	-0.00059277116	-0.00023328287	-4.9473594e-05	0.00035834222	-0.0001100116	0.00029190333	-0.000344811	0.00057197554
Cramér–von Mises criterion_22	5.694572e-07	-0.00019507913	-0.00045733404	7.934644e-05	0.00063528406	0.00026445746	-0.00026769735	0.00058085914	7.900258e-05	0.00088543596	0.00041276385	0.0005892613	-1.27854755e-05	0.00046879094	-0.00011962706	0.00069611386	-5.232168e-05	-0.00069097744	0.0002056841	-9.068162e-05	0.00020319139	7.262708e-05	-5.4196462e-05	-0.0002757133	-0.00027070197	-0.0006407279	-4.509331e-05	0.0005089009	0.00016528423	-0.0003265185	-0.00020944604	0.00047486098	-0.00047660284	0.00022011383	-0.000105616884	1.5360385e-05	0.0009003505	-9.841607e-05	2.4466146e-05	-0.00020139237	2.852527e-05	-6.9033194e-05	-0.0002064954	-0.00028757416	0.00021273302	-0.00043771797	-0.00047625462	0.00022319725	0.00020585151	-0.0003192321	0.00018984237	3.729004e-05	-0.00023146118	-0.00022897145	1.4903746e-05	1.0495447e-05	-0.0008548802	0.00044564554	-0.00048403727	0.000308874	0.0008850867	-0.000104121355	0.0004748921	-0.00073728786	-2.4469176e-05	-1.2208079e-05	-0.00039529186	0.00019306652	-1.31386505e-05	-0.00029976937	-0.00015857711	-0.0003470945	8.194143e-05	-0.0004912557	0.00016517518	5.408575e-05	0.00017780137	0.0004378573	-0.0003781863	7.037276e-05	-0.00015903663	0.0009474637	0.0004923678	5.462049e-05	0.00033917784	-0.00020926066	4.293431e-05	0.0006573849	0.0005362352	-0.00023533407	-0.00057445746	0.00038296534	0.00037573065	-0.0005714449	0.00018683804	0.00020453776	0.00019788757	0.0005781172	0.00015949151	0.0012563865	0.00026374985	-0.00020932328	-0.00023834375	-0.0009746642	0.0004349527	-2.3782184e-05	0.00020295553	-0.00018099553	-0.00010872995	0.00016860566	0.00051103235	-0.00019638997	0.00060262333	-0.00025150288	0.00021283687	0.0003361993	0.00065694517	-5.0726067e-05	-0.00020318138	0.0004862086	0.00020339724	0.0006647217	3.6044792e-05	0.0007749541	5.5384844e-05	0.00014196332	-0.0003020397	0.00020629421	-0.0005968857	0.00046989167	0.00016511972	-0.00036037306	0.00023844547	-0.00031139972	-0.0005837289	0.0006453601	0.0001079316	0.00057296245	0.00052834273	-0.0006103222	-5.263323e-05	0.00055812334	-0.00018656332	0.0001001682	-0.0001168741	0.0004421207	-0.0004639687	-9.237734e-05	-0.00028601554	-0.00021719534	-0.00034856613	-0.00037631832	-0.0002576071	0.00088005094	-5.588534e-05	-7.620147e-05	-0.00018520468	0.00018771683	0.0003333756	0.00031220997	0.0011101844	-0.0002575228	-0.00017822438	-4.3258697e-05	-0.00044862283	0.00046632154	-0.00021621038	0.00041670748	0.0001230546	-6.7688394e-05	-0.0004329908	0.00014716007	-0.00082816184	-0.0004951308	-0.000875061	-0.0002796127	0.00057927973	0.0003139822	-0.0003366648	0.00030966336	-0.0006578852	0.00063838	-0.0002380454	-0.00059594214	0.0007311784	-0.0006241393	0.00029499477	5.212211e-06	-0.0002657412	6.894436e-05	0.0005919814	-0.00013368708	0.000104571576	0.00043985323	-0.00096827745	0.00020335431	0.00032068364	0.00010638523	-0.00010699719	-0.00038248714	-0.00010361117	-0.000651298	-0.0003981529	-0.00022533417	-8.465315e-05	-0.0008379842	-0.00045462852	-0.0007228566	0.00025088628	2.965451e-05	0.00076008204	-4.9367313e-06	-0.0001220175	0.0004267484	-6.327295e-05	0.00037211907	0.0004059743	0.00023267337	-0.0008526339	-0.00045630647	-5.7507947e-05	0.0004559572	0.00027166627	-0.0002558118	-0.0006981235	0.0003234773	-0.00054106646	-0.00082147226	0.00045614745	0.00029394712	-0.0002938897	-0.00056235737	6.462125e-05	-0.001050749	-0.0005527971	-0.0008100318	0.00016854875	0.0007992343	0.00019639244	-0.00047980924	-0.0009105263	-0.0001351011	0.00069273065	0.0004018458	5.1639345e-05	-3.078021e-05	0.00019326575	0.0009959152	-0.00070042827	-0.0009811446	2.4061417e-05	-0.0001686888	-0.00040531502	-0.00027985685	0.00092204305	0.00036983617	-0.0005485214	0.00014885579	-0.00012318794	-3.747419e-05	0.0006306024	0.0008588737	-6.874881e-05	-0.0002250144	0.00053777307	-0.000102930586	0.00016954532	-0.0009826657	0.0006752803	0.0010638942	0.00010993731	-0.00025739	0.00084926083	-0.0005486778	-0.00048579945	4.73425e-06	0.0004111831	0.0001588751	8.890042e-05	-0.0005107427	-0.0008556406	-0.0003720344	-1.0053487e-05	0.00034831892	3.894909e-05	0.0008653238	-8.8768094e-05	-0.0004996487	-0.00032992777	-0.00051333057	9.623521e-05	0.0007252507	-0.00068935845	-0.00035630877	-0.00044222974	0.00010324912	-0.0005075871	0.00056369754	-0.000112206886	0.0009066711
Cramér–von Mises criterion_23	0.00037945568	-0.0003437865	-6.229017e-05	3.0885887e-05	0.00029029726	8.3103245e-05	-0.0007222436	0.00029948296	-2.8356026e-05	0.00028543017	0.0004238471	0.0005334709	0.0002472013	0.00032055945	-0.000327435	0.0005114397	0.0002612952	-0.0005822546	0.0001504524	-0.00071107724	4.2576612e-05	0.00071796315	0.00021954451	-0.00018093486	-0.0004337634	-0.00068723346	-0.00046284334	0.00047656143	7.377844e-06	-0.00021717069	-0.00015375167	0.0005576924	-0.0003658569	0.00033082164	-4.1201652e-05	0.000542252	0.00056251173	1.8695462e-05	0.00027040244	-0.00031689508	-6.389558e-05	0.00010833293	-7.126979e-05	-0.0004854707	0.00041843517	-0.0008738168	5.4017455e-05	-1.3906717e-05	0.00040171907	0.00014072125	0.00020837659	-0.00012816886	-0.00039647002	-0.00035263703	-1.2160885e-05	-0.00023480738	-0.00055709545	0.00067701977	-0.0006673945	0.00010162317	0.0007602448	0.00053438515	0.00037143295	-0.00024070762	0.00020454614	0.0005926409	-0.00058336754	0.00040671026	0.00021473544	-0.0003086035	0.0003378849	-0.00074073585	0.0003164784	6.632253e-05	-0.00036957572	0.00034399304	6.3176805e-05	0.00095167337	-0.00014598043	-0.00039705314	7.773125e-05	0.0005464541	0.00046228076	0.00026264775	0.00018672828	8.306943e-05	8.4078005e-05	0.00017998178	0.00021021003	-0.00050698547	-0.00051202835	0.0005327497	0.00023547586	-0.00034729968	7.103466e-05	-0.000177023	0.00032299507	0.00063535717	0.00013444619	0.0012005629	0.00029299065	-0.00031506937	-4.1768933e-05	-0.0007800272	0.0006349386	-0.0006577636	-4.615725e-05	-0.00012773494	0.00019699844	0.00021556989	0.00013615596	-0.00042252918	0.00040247495	-0.00033337853	0.00013539239	0.00072688935	0.00074240274	-2.6525395e-05	-0.00013186518	1.0959501e-05	8.4804866e-05	0.0006316092	0.00017216349	0.0008879172	-0.0002848864	0.00035614666	-0.00060902856	0.0004450093	-0.0005429131	0.0006184076	-0.00016220994	-0.00018912021	0.00013905256	-0.0003359459	-0.00069640944	0.0005571715	2.8387387e-05	0.0003426869	0.00037881435	-0.0002916789	0.00014269966	0.0003145992	9.7294025e-05	0.00015405321	-0.00015537615	0.00045466208	-0.00028374023	-0.00034057503	-0.000452526	-0.0005607426	-0.0007198888	-0.0006115134	0.00025625527	0.00041001505	-3.496278e-05	-0.00010083439	-0.0001619726	-0.0001961024	0.00046571685	8.465552e-05	0.001020334	-0.00032407153	1.6314496e-05	-3.2409873e-05	-0.0002421726	0.00061844167	-0.00059852283	0.00023604798	-0.00032725264	9.038559e-05	-0.000817241	-0.00050138216	-0.00056488084	5.705226e-05	-0.00045394385	-0.00020009745	0.00040701404	0.00039172336	-0.00063024834	-1.8534196e-05	-0.0007066243	0.0005582954	-0.0003599871	-0.00052075525	0.0008024764	-0.00080414687	0.0006325884	-0.0003409444	0.00014324878	-0.00018254071	0.0005325876	-0.00025421815	0.00026881057	0.0005670885	-0.0005272081	-7.513957e-06	0.0002847786	3.2572425e-05	0.0003904135	-0.00030592625	-0.0001292456	-0.0009565534	0.00022557683	-3.308904e-05	0.00013021754	-0.0003588616	-0.0008496021	-0.00053971296	0.00033237785	0.0005275296	0.00070872135	-0.00045442878	-0.00048496498	0.00022644081	0.00033538416	0.00042487247	0.00020986574	0.0002111881	-0.0009621639	-0.00040811222	-0.00014024311	0.00035209252	-0.0002384658	-0.00032164715	-0.00047182175	3.8950144e-05	-0.0006683672	-0.0006105761	0.0004626369	0.00067879254	-0.00024401592	-0.00027487625	5.5016426e-05	-0.0010451565	-0.00065917487	-0.00030108722	0.000555555	0.00062525214	-0.0002877066	-0.00036953282	-0.000708613	-0.00044280555	0.00081948854	0.00012560116	-1.1078594e-05	0.00019772412	0.00048669855	0.0009724062	-0.00029408446	-0.00059340656	-0.00048169968	-6.6872235e-05	-0.00015390778	-0.00015916058	0.00072745956	-0.00017171277	-0.0003325622	-9.5797885e-05	-0.00050335034	-0.00013683553	0.00061248086	0.00083891937	0.0004880155	0.00033932857	0.0005906505	0.00011752678	0.00038569715	-0.0007570849	0.000992622	0.001135143	3.2660515e-05	-0.00042177382	0.0006426292	-0.0007317109	-0.0003440645	6.9598565e-05	0.00068267126	-0.00012630553	-0.00013770345	-0.00060613506	-0.0005401176	-0.00021383725	0.0003724934	0.0003299654	-6.1582345e-05	0.00097109156	-0.0005488595	-0.00012526478	0.00013117884	-7.0224516e-05	0.00012097838	0.00086523534	-0.00047056648	-0.0008761677	-0.00045192247	0.00040876176	-0.00025705423	0.00028304502	-0.00017158943	0.00055620214
Cramér–von Mises criterion_24	-0.00027388977	-0.0005824853	-0.00018783814	0.00015211782	-5.7558762e-05	-5.972511e-05	0.00031352864	0.000405764	-0.00034124817	1.1579001e-06	-0.0002662631	-0.0003746615	0.00029441755	-0.00014595015	0.00049243367	-0.00044567697	0.00013966252	-0.00017186221	0.00042308794	0.00026983538	-0.00041607535	0.0005238507	0.00012866399	0.0005356067	0.00045357062	-0.00022340276	0.0006448758	-0.00020747186	-0.0003532672	0.00025043733	0.00080122094	0.00012239671	2.5441588e-05	8.745231e-05	-0.00022026713	4.858735e-06	4.4058444e-05	-0.00029541305	-6.5915e-05	0.0006275783	-0.0007938972	-0.00012917539	0.00053975295	-0.00035789376	0.0002972302	-0.00014067155	-0.00053726544	-0.0004017406	0.00074283994	5.9818434e-05	-0.00019915098	0.00034130132	-0.00050907716	-0.00063666	0.00080095296	0.00017255428	-0.00056086696	0.00029211398	-0.0002623379	0.0004147667	0.00012469778	-4.6272744e-05	-3.0404157e-05	-0.00026334677	0.00031347695	-0.00044680366	-0.0002685608	-0.0004168413	-0.00024678028	0.0003260961	-0.00017235203	-0.0004901947	0.00014426155	-4.2744214e-05	-0.00010435724	-3.8133254e-05	0.00023938956	-3.234836e-05	-0.00012908997	0.00038699803	0.00040676977	0.0005132075	0.00016867349	0.0005509967	-0.00077660225	-0.00078906846	-0.00033039972	-0.00031961445	-0.00021292763	-0.00011678633	-0.0002618285	0.000103363345	0.00037891793	-0.00026891567	0.0003506538	-1.5593865e-05	-0.00021218661	0.00027390025	0.00081391266	-0.0001027351	-6.660111e-05	0.00055491115	0.0006423555	-0.0004026701	0.00041688333	0.00043119356	-0.00022183459	0.0004404406	-0.00017715002	0.00036987127	0.00049820927	-6.890638e-05	-0.00051011	7.730018e-05	-0.0003818676	4.2191073e-06	-0.00012137838	0.00016798182	0.00028091198	-0.00037976055	-0.0001292003	-0.00037950225	-0.000723	9.591814e-05	-0.0004839595	0.000510511	-0.0004616525	0.0003460082	-6.0417606e-05	4.2534207e-06	0.0005790551	4.422889e-05	5.8578742e-05	-0.0003529774	0.00043405654	-0.000257811	-0.00025784012	0.00012147911	0.00010925067	-0.00034478158	-0.00026969862	-0.00033149667	-0.00047763562	-0.0007488271	0.000114034454	-0.0001299934	4.043688e-05	-0.0003098282	-0.0003402694	0.00030908026	0.00041607648	-0.0005027259	7.720822e-05	-0.00043268947	-2.6429421e-05	-0.00018307903	-8.953148e-05	0.00028342466	0.0002316545	1.5233444e-05	-0.0001318154	0.0004014582	0.00054423587	0.00020534375	-0.00011424057	-8.917054e-05	-0.00029452104	-0.00018693366	4.401873e-05	0.0001988827	0.0007923686	-2.0616555e-05	-1.5157125e-05	8.632025e-05	0.00045261162	-7.276983e-05	0.00050396495	-3.9720944e-05	0.00038297081	0.00014121192	-0.00037457026	0.00027821632	5.0680894e-05	-2.0846563e-05	0.0002279278	-0.00043839394	0.0001390413	9.030228e-05	0.00020317643	0.00018376447	0.00033903582	-0.00043648813	0.0005194275	-0.0005202586	-0.00036233212	-0.00030172712	0.0002475801	-4.585222e-05	-0.00026308637	0.0003838134	-0.00018456555	4.4708057e-05	0.0005396249	-8.980145e-06	0.00014830973	-0.0001221448	5.217537e-05	0.00026250584	0.00067074166	-0.00017810518	1.3884922e-05	0.00021700628	-3.805906e-05	-2.9345641e-05	0.00024045902	-0.0003178124	0.0006763214	-4.5298682e-05	-0.00029342217	-0.00013729623	-1.21802195e-05	3.7585352e-05	-0.00033866966	-0.00024318312	0.00067037856	-8.696678e-05	-0.00021131054	-0.00030787685	0.00046436297	-0.00013779456	0.0005414468	-0.000104719315	-0.00040692478	-0.00084205664	-0.0002482719	-2.1537175e-05	-2.2141807e-05	0.00035061367	-0.00046941306	-0.0003308691	-6.754417e-06	1.0347959e-05	0.00064251944	9.7244965e-06	-0.0001859027	7.3034236e-05	-0.00011680969	0.00038293298	0.00026925915	1.888096e-05	0.0005842858	0.0007591673	-6.911143e-05	0.00029378166	-0.00057280215	-0.0005180963	-0.0007349174	0.0006381008	-0.00021350439	-0.0006889138	-3.2963864e-05	0.0005278072	-0.00053682725	-0.00017713406	0.0009474663	-3.1884138e-05	0.0004171464	-0.00031515234	-8.577213e-05	-0.00013897098	6.641719e-05	0.00036642078	-0.00031795984	-7.9462385e-05	-5.4935288e-05	1.3354002e-05	-2.9557776e-05	-7.4261385e-05	-4.7890684e-05	2.2085102e-05	-0.00023106638	-1.4634803e-05	0.00047852052	-0.00044599714	0.00019457059	0.00035900268	0.0001135306	-5.2551903e-05	0.00017879622	0.00019296531	0.00031224848	0.00079215836	0.0005272746	-0.0005184539	0.000297504	-0.0002859526	6.166473e-05	0.00015851502	0.00034573706	-0.00025410161
Cramér–von Mises criterion_25	-0.00049005676	-0.00027232108	-0.00034625048	-0.0002708192	0.00080433296	0.00025280827	-5.6648973e-05	0.00026210333	-0.00014998254	0.00033904327	0.00025198606	0.00020415927	0.00014793499	6.530616e-05	0.000204306	0.00014954859	0.00023756687	-0.0006192113	0.00019191524	0.00011700427	0.00018060059	4.194653e-05	0.00017478774	-6.665489e-05	-3.6737914e-05	-0.0003420208	0.0004694072	-0.00027474423	-0.00012759533	-0.00027395843	7.610195e-05	0.00014791041	-6.959868e-05	4.3290023e-05	-1.4889783e-05	-0.00029099206	0.0006165697	-0.00035372056	-0.00017251585	-1.019903e-05	-0.00012869522	-1.621511e-05	-4.8706723e-05	3.2587213e-05	0.00063553115	-0.00040065876	-0.0006902553	-1.7523997e-05	0.00029164235	0.0001388602	-2.3742909e-05	-0.0005600632	-0.00018611098	-0.0006856151	0.00016929119	-0.00011941244	-0.0006672482	0.0005234164	-0.00043656805	0.00043101178	0.0005560064	-8.6713546e-05	0.0003431742	-0.0005082414	0.00022962388	-2.9754288e-05	6.769709e-05	0.0003240062	0.00017053049	-0.00024299843	-0.00026297872	-0.0005699333	0.00016773862	-0.0003937713	0.00032584104	4.369583e-05	0.0005347025	0.00011380718	-0.00015803124	0.0004349851	0.00020037647	0.00069903734	0.00068212	0.00014306993	-0.00012428092	-0.0003042218	0.0001974312	0.00031054203	0.00020043955	2.6694482e-07	-0.00061920687	0.000347775	0.0005650568	-0.00063167146	0.000408464	0.00031053988	-0.0001786472	0.00012013722	0.00021680616	0.00031989446	-0.00012203459	0.00017012657	0.00019247543	-0.00048801766	0.00054499734	0.0003301759	0.00019473038	0.00013415348	-8.733597e-05	2.6967627e-05	0.00059753546	-6.9961966e-06	3.2322416e-05	8.432086e-05	3.827024e-05	0.00023628016	0.000275335	0.0003308412	0.00030839274	2.9513429e-05	0.00038903512	0.0006318254	-8.859344e-05	0.0003286004	-0.00024913665	-5.6882414e-05	-0.00023002447	0.000282109	-0.00028373674	0.00016483435	-4.1248742e-05	-0.0002707191	4.5817837e-05	-0.00023888159	2.884633e-06	2.456738e-05	8.927805e-05	0.00058579654	0.00026272846	-0.0004597555	0.0001226612	-3.075861e-05	-0.000512977	-0.00013503281	-0.000346107	7.936557e-05	-0.00032178644	8.069257e-05	-0.00038484207	0.00011784905	-0.00021260737	-0.00019484239	-0.00033873814	0.0002915651	-0.0005691396	-0.00026443435	1.71792e-05	0.00011391161	-8.8467496e-05	0.00033514196	0.00030118105	0.00018000965	0.00014751538	2.9431141e-05	-2.411131e-05	0.00016269126	-6.529653e-05	0.00013753316	0.00044394357	1.8425953e-05	3.177032e-05	0.00020850808	-0.00031084026	-0.00035437124	-0.00021676834	-0.00032619288	0.00050924445	5.38141e-06	0.00013922094	0.00018714975	-0.00064494804	0.00040358212	-0.00034711603	-0.000339421	0.00010980702	-0.0005904702	0.00043373587	0.00025554068	-0.00028382477	7.2055286e-06	0.00022001432	-2.2232318e-05	0.00038367932	-0.00039650718	-0.0005118736	6.35854e-05	0.0005202643	-2.3832115e-05	-0.00049960386	-0.00027353957	-0.00024098893	2.4209345e-05	-0.00020976308	-0.00023832932	-7.494128e-05	-0.0003761362	-0.0002235487	-0.0003812642	-8.514288e-05	-0.0002798523	0.00016806083	0.00024623348	0.0002303348	-9.8192366e-05	-9.283257e-05	0.00033976583	0.00014634828	0.00021004473	-0.000524922	-0.00032057613	6.318297e-05	0.00019462223	-0.00032112683	-0.00018984171	0.00012218545	0.00021295875	-0.0003647081	-0.0001413418	0.00035451495	0.00011304299	-8.314298e-05	-0.0005196699	-0.0002593502	-0.0009827851	-0.0001012347	-0.0006456813	0.00011261837	0.0008930515	9.620737e-05	-0.00016367165	-0.0003197459	5.904003e-06	0.0006831862	0.00014294613	-0.0003841043	8.656244e-05	0.00015635959	0.00046512956	-0.00039703475	-0.00053845043	0.0008014279	-4.3230652e-06	0.00014135572	-0.00014516796	0.00030691148	8.496868e-05	-0.00072642654	0.0004287803	-0.00022300103	8.1680526e-05	0.0001763562	0.00079729845	-0.00049553206	-0.00032125434	0.0010483442	-2.3613546e-05	0.00016915971	-0.0005986819	0.00014970348	0.0007106466	-3.794611e-06	0.00044216897	0.0005000739	-0.0005258816	-9.9139244e-05	-7.237151e-05	-9.015122e-06	2.9559918e-05	0.00024686777	-0.0005154203	-0.00054926384	-0.0003410424	-0.00013982586	-1.4536999e-05	0.00031674097	0.00046886597	1.5952347e-06	-0.00012467991	-0.00038525506	-0.0004247362	0.00023708378	0.00059101597	-0.0001601718	-0.0005510683	-6.0989507e-05	-0.00029410532	-0.0002767478	0.00018740808	0.00010065332	0.00075805053
Cramér–von Mises criterion_26	-0.00013330446	-0.00046718665	0.00010286566	-0.0001884304	0.00055329886	0.00010442512	-0.00037848458	0.00015268868	-8.9688474e-05	-0.00010920952	0.00029320756	7.7937104e-05	0.00032836213	-6.823532e-05	5.9662587e-05	0.00022812714	0.00043631776	-0.0004407292	0.0002511009	-0.00047227557	8.3185434e-05	0.0004943489	0.0004679286	0.00018545243	-0.0002329286	-0.00030096967	0.000120206496	-0.00028123352	-0.00015910211	-0.00011206221	0.000108043234	0.00037493385	-0.00018710816	2.000952e-05	-7.497157e-05	6.6555585e-05	0.00022440507	-0.0003602037	9.858118e-05	-8.048553e-05	-0.00018216799	9.886186e-05	-3.3808585e-05	-0.0001894802	0.000793644	-0.0006130253	-0.00031086925	-6.344715e-05	0.0004247222	0.00054377026	0.00013019663	-0.00050925097	-0.00036437574	-0.0007300665	0.00011571693	-0.00044073476	-0.00040997023	0.00058539707	-0.0005840691	7.52773e-05	0.000531461	0.0004260116	0.00033730103	-0.00015997465	0.00028120168	0.00034267656	-0.00017492806	0.0005170125	0.00025976397	-0.00029314827	0.00012092633	-0.00083654287	0.00035109764	0.00010095607	-0.00024172911	0.00024852942	0.00035798876	0.00044002227	-0.00016295907	-8.453898e-05	0.00023726883	0.00025054096	0.0004136495	0.0002788596	-0.00011860349	-0.00022646638	0.0001025761	-0.000274677	-1.0431292e-05	-0.00033620794	-0.00071331405	0.0002464086	0.0003916713	-0.00040510748	0.00035284727	0.00021058765	-8.888367e-05	0.00015451924	0.00018318447	0.00030097185	4.3924916e-05	-6.855614e-05	0.0003841533	-0.0004930474	0.0006751622	-0.00021470927	-0.00016159321	2.251938e-06	0.00014826907	0.00013232413	0.0002240813	-0.00013744015	-5.6264464e-05	9.585125e-05	4.438869e-05	0.00046299613	0.00025729343	0.00018967058	0.00028432233	-0.00031826785	0.00026499364	0.0004647588	-1.326322e-05	0.000519691	-0.0004920618	0.00016557555	-0.00055262435	0.00045758684	-0.00027087217	0.00035639017	-6.631646e-05	-8.6343e-05	-2.7543425e-05	-0.00026112015	-0.00010845189	0.00011567725	-2.8261189e-05	0.0002943954	-7.036874e-05	-3.1337317e-05	0.00022864185	-0.00028727006	-0.00021602128	2.9729701e-05	-0.00032635964	4.416779e-05	-4.4086555e-05	4.1436906e-05	-0.0005647559	-0.00034050524	-0.0004758424	-0.00042536343	2.1017873e-05	-8.686682e-05	-0.0005490727	-0.00028896777	-0.00011175164	-0.00022022048	2.4811643e-06	5.034094e-05	0.00024697525	5.7446425e-05	0.00012692882	0.00010315774	0.00011398546	0.00024254684	-0.0002260542	0.00012498334	0.00018655485	-3.1729887e-05	-0.00032010194	-0.0003762121	-7.8569814e-05	7.136023e-05	0.00020120497	-0.000112578695	0.0003004665	-1.9295736e-05	-0.00012981257	-9.676691e-05	-0.0005272983	0.000368055	-0.00031065755	-0.00031902408	0.00015767166	-0.0008602595	0.0005271699	-0.00019960421	0.00011926336	-0.0001843048	0.00021087655	-0.000215697	0.00038725653	-0.00020375111	-0.00021858621	-0.0001327582	0.0004780418	-0.0002113223	-0.00014774199	-0.00022337839	-0.00027861504	-0.00036827952	0.00016099107	-1.0518144e-05	0.00019774113	0.000106840664	-0.000577807	-0.00023704494	8.1182836e-05	3.22964e-05	7.2420036e-05	2.996678e-05	-0.00011660712	-0.00021014997	0.00026491212	0.00042379356	-2.0782796e-05	0.0002517554	-0.00063474174	-0.00041040184	-3.4729266e-05	0.00025228283	-0.00055083446	-0.00014205357	0.00020968007	-8.156441e-05	-0.00044045693	-4.6148565e-05	0.0004606677	0.0004026953	3.4503122e-05	-0.0001857915	-0.00012531201	-0.0010197875	-0.00030542738	-0.00032440946	0.0004739026	0.0006118334	-0.0003234682	-0.00011052605	-0.0002325486	-0.0002940663	0.00060078263	-0.00012018981	-0.0002759819	0.0002523205	0.00049076066	0.00036142202	-0.00013036768	-0.00017845702	0.00033164403	4.7331963e-05	0.00036157807	-9.588945e-05	0.00024163767	-0.0005018467	-0.00056813366	8.751963e-05	-0.000409202	-4.112427e-05	0.0001545276	0.0006904148	-7.308176e-05	0.00018158283	0.0011925864	3.1411117e-05	0.00047334936	-0.0003083701	0.00037405634	0.00073650735	-5.8128306e-05	0.00023661427	0.000347365	-0.00072885386	-2.382487e-05	-7.990417e-05	0.00014211051	-0.0001337556	0.00017499055	-0.00055392674	-0.0003555107	-0.0003170093	0.0002210509	-6.2110103e-06	0.00017022001	0.000544364	-0.00032713183	1.2139557e-05	2.0282854e-05	5.9842787e-05	0.00026468007	0.0007298745	0.000113767645	-0.0007869161	0.00014235027	-0.000107073116	0.00011912325	2.3238854e-05	-1.2665987e-07	0.00037487922
Cramér–von Mises criterion_27	-0.00040627428	-0.00018556332	-0.00069382833	-0.000371332	0.0010808235	0.00022122895	-0.0005047979	0.0005385485	0.00014429845	0.00043303208	0.00041575654	0.0004848103	0.00023345763	0.00039120353	-0.00029810605	0.00022822998	3.4079352e-05	-0.0009190414	0.00011753789	0.00025088777	0.00049251533	-0.0003081874	-0.0002445951	-0.00026738527	-5.9167272e-05	-0.00052875123	0.00038266697	6.730652e-05	6.4455903e-06	-0.0004850124	3.2446602e-05	0.00038652227	7.9982565e-05	5.0050603e-05	-0.00021478333	-0.0002730118	0.0011667886	-0.00014143538	-0.00044796843	-0.00042547844	-0.00023855991	-0.00013855333	-0.00032115943	-6.122365e-05	0.0007345894	-0.000571896	-0.00071947015	2.2404642e-05	7.2806897e-06	9.993503e-05	0.00016297269	-0.0006072948	0.0001381139	-0.0006630276	3.902882e-05	-0.00021304951	-0.0004901298	0.0007758255	-0.00054493	0.00042899215	0.00054724264	-0.00021231784	0.0004935846	-0.0005142672	-0.00010005028	-0.00015213646	0.0001509318	0.00065420975	-0.00011633395	-0.00024436504	-0.0003297048	-0.00048262518	-3.297562e-05	-0.0005418907	0.0004766439	-4.0822935e-05	0.0004939954	0.00020252049	7.812011e-05	0.00043352888	3.780309e-05	0.0008610664	0.00082152133	-2.352511e-05	0.00014188877	-7.262898e-05	0.00038377236	0.0007141031	0.00055682485	-0.000107490065	-0.00044798208	0.000651145	0.0007469145	-0.0007871323	0.0002992616	0.000104909566	0.00018195152	0.00018663882	0.00030720822	0.00084738014	0.00021235974	0.00029221893	-0.00035959663	-0.00049715035	0.00065346574	0.000271111	0.00026704857	0.00010416063	-0.00020596493	-9.877704e-05	0.00045635932	-0.00027780043	0.00028190558	-0.00028004037	0.0001572128	5.6997687e-05	0.0006434779	9.7088654e-05	0.00010477534	0.00040933612	0.00032478658	0.0009078391	4.9265836e-05	0.0004528338	0.000129608	-0.0002643508	2.0376416e-05	-0.000168552	-0.00053435925	0.00031096413	-0.0003829064	-0.00019869492	4.5842207e-05	4.776602e-05	-0.00028326228	0.00016054278	-0.00016363263	0.0006154011	0.0006069952	-0.0006719633	4.4990797e-05	0.00028715466	-0.00041443203	6.636017e-05	-0.0004751658	5.8399222e-05	-0.00074533105	0.000115293115	-0.00020859615	-0.00015954822	8.8865054e-05	-8.172146e-05	-0.0005291609	0.001103588	-0.00042277155	-0.00010479335	0.00010711317	0.00033398424	-3.273537e-05	0.00013113033	0.0008848345	-0.0001612814	0.00041545596	-0.00045245868	0.0001404817	0.000591568	-0.0004024181	7.0835464e-05	0.00040445608	0.000177565	-0.00029985546	0.00045570434	-0.00043022732	-0.00046901964	-0.00060911983	-0.00029911642	0.00064623903	0.00010284613	0.00018415588	0.00048314495	-0.0007885428	0.0007384263	-0.0003877719	-0.0005009215	0.00047908787	-0.0003591919	0.00038509292	0.00044625998	-0.0003576797	0.0001212542	0.00029799773	3.095403e-05	0.0004334456	-0.0001256721	-0.0007412958	0.00034642022	0.0003083887	0.00049497146	-0.00051343546	-0.0002204784	-0.00057091576	-0.0002741713	-0.00058604346	-0.00048561077	-0.00050860096	-0.0006704747	-0.00040919794	-0.00096072146	-0.00023237507	-0.00016768754	0.00071993994	-0.00043516103	8.613264e-05	4.208672e-05	-8.194895e-05	0.0005902081	0.00018619714	0.00018195939	-0.0010409517	-0.00015737899	2.9476766e-06	0.00024548412	-0.00020348956	-0.00040169866	-0.00019808277	0.00050384935	-0.00043492523	-0.0005814636	7.491844e-05	0.000121344565	-0.0001692407	-0.0007972069	-0.00020853392	-0.0011171093	-0.00016316769	-0.000944495	-0.00014324803	0.0010079555	8.184974e-06	-0.0003267179	-0.0005501448	-0.00031884894	0.0009816033	0.00047167338	-3.930926e-06	-1.2995489e-05	0.00014156048	0.0008539708	-0.00042577693	-0.0006976072	0.0004870236	-0.00032920353	-8.053827e-05	-0.0003191516	0.0008388659	0.00046753875	-0.00093286467	0.0002347148	-0.000108714776	7.498677e-05	0.00029341312	0.0009948356	-4.2904187e-05	-0.000711024	0.00069976086	9.595315e-05	-0.00017299278	-0.0010033624	0.00013376318	0.0009932047	-8.136641e-05	-3.7849117e-05	0.0011053813	-0.00042970973	-0.00031427943	0.0001170189	0.00013642432	-7.2367025e-06	0.00031906785	-0.00016014761	-0.00045332412	-6.784646e-05	-6.484068e-05	3.246889e-05	0.00048305403	0.0006020726	-0.0002000654	-5.0787115e-05	-0.00025874242	-0.00082785997	6.660487e-05	0.0007373171	-0.00030624022	-0.00073608133	-0.00044815353	-0.00026688914	-0.00067723944	0.0006988842	0.00039102387	0.0011188268
Cramér–von Mises criterion_28	-0.0014288985	0.00066989305	-0.00066768157	-0.0004354092	0.00083800306	0.0006616731	0.0007314687	0.0013104894	-0.0010433855	0.0013563352	-0.0005790922	0.0011011763	-0.0010866629	0.00066955975	-1.6029554e-06	-3.1927724e-05	-0.0007175544	-0.000702022	0.0013609821	0.001550746	0.00034792649	-0.0015675644	-0.0016082636	0.00071699766	0.0012352876	-0.0010186426	0.0013038365	0.00021800246	0.00019141397	-4.018018e-05	-0.00023116216	3.1590465e-05	-0.001077075	-0.0003494497	-0.0013830857	-0.0010397125	0.00094118976	-5.214042e-05	-0.00081688055	0.001420046	-0.000802524	-0.00026672342	0.00046518192	-0.00019733416	-2.5607398e-05	0.000891675	-0.001135388	0.0006578056	0.00039515627	-0.0014692937	-0.0005802327	0.00133893	0.0010372527	-0.00010345733	0.0016104423	0.00029109867	-0.0009154802	-0.00030305056	-0.0006353516	0.0016456775	0.00045086464	-0.0016016407	0.00012583862	-0.0015101724	0.00023429212	-0.001631369	-0.0004941639	-0.0015350906	-0.0012811628	0.0009292748	-0.0012146068	0.0006001914	0.00020049239	-0.0013124365	0.0011373108	-0.00036660183	0.00020495807	-0.0009107381	-0.0013813522	0.0013196414	-0.00023584768	0.0015688146	-0.00072664715	-0.0011233245	-0.00083379354	-0.00132078	0.000106423504	0.0008764137	0.0015458809	-0.00019265423	-0.0007992163	-0.00047663815	0.0009481659	-0.0016656194	0.0011439616	0.0007257284	0.00083347206	0.0010941953	0.0005903593	0.00039970406	0.00029247135	0.0016539032	0.00053752435	-0.0016502544	0.0005395256	0.0015284857	0.00014157048	0.0013137733	-9.252919e-05	0.0005722086	0.0012573448	0.0007279375	-0.000369657	-0.0006354355	-0.0010736868	-0.0013569018	-0.0002713242	-0.0010108921	4.5976605e-05	0.0016382457	-0.00014237929	-4.517389e-05	-0.001121596	0.0010305787	0.0008098491	0.00041712038	0.00013860682	-0.0014635992	-4.3084137e-06	0.00043257402	0.0016527426	-2.8789713e-05	-0.0006644951	-7.2757357e-06	0.00017206985	0.0003906019	-0.00074831734	-0.00016521585	0.0008747603	-0.0009746464	-0.000725835	0.0011539344	-0.0008176853	8.275972e-05	-0.0005032873	0.0006004857	-0.00029781234	0.0013999355	-0.0005697793	0.0008963444	0.00046825412	-0.00048589276	-0.0010139555	0.0013753199	-0.00080194406	-0.0012491482	-0.00063997915	0.0016640488	0.00021542946	0.0009729919	0.0006057567	-7.1835e-05	0.00031841977	0.0009231872	-0.0005601291	0.0004190426	0.0009449801	0.0010375531	0.0008621712	-0.00028163314	0.0013735943	0.0015950438	-0.00095292076	-0.0011537127	-0.0005869779	0.00070227706	0.0013098316	0.00027976703	0.0011989998	0.0012918368	-0.0010108354	0.0015997437	-1.781264e-05	0.00037127372	0.00049826293	0.0004399798	-0.0008089503	0.00018408855	-0.001329247	0.00089608744	0.0011737547	-0.0008767913	-0.0007623851	0.00029581736	-0.0014489066	-0.0005268972	-9.140141e-05	0.001424284	-0.0012385618	0.0007406845	-0.00015161495	0.000482763	-0.0015294595	-0.0010616559	-0.000349065	-0.0016220936	0.0013118386	-0.00032582533	0.00012953595	-0.0011556284	0.0006872322	0.0013892958	0.00020986689	0.0014590236	-0.0009917112	0.0001879721	0.0004166506	0.0006612595	-0.0010770486	0.00062671065	0.0004039584	0.0014881776	0.00093247375	-0.0009854661	-3.327953e-05	-1.677086e-05	-0.00038513367	-0.0015814446	0.00094687525	-0.0012852994	0.001357649	-0.00040275202	-0.0011441234	-0.0014484441	0.0009437495	-0.0012166937	-0.0014935068	0.0009059836	0.00096828135	-0.0011521329	-0.0015413179	0.00086859067	0.00076671125	0.00077244465	0.0011199702	-0.0011070521	-0.0013413355	0.001582242	-0.00095968874	-0.0014209632	0.0015929607	-8.5458676e-05	-0.0011274277	0.00019001965	0.0011179771	0.0010428319	-0.0016312471	0.0013548651	0.00050217845	-0.0009799342	0.0012952803	0.00059664855	-0.0015259506	-0.001192162	8.823e-05	0.00019773301	-0.0010923403	-0.0016314758	-0.0002891304	0.0005239367	-0.00026603957	0.0006654098	0.0010161673	-0.0002640755	-0.00020783619	0.0011495639	0.00025258362	0.0014758072	0.00076259085	0.0015019625	-0.00067525875	0.00049340754	-0.00033979118	-0.0004971616	0.0007407225	0.0005472293	0.00087469234	-0.0015923075	-0.0009131352	-0.0014490033	0.00063118985	0.00043489845	5.60306e-05	0.0011423068	0.00015004576	-0.0009958687	-0.0003395347	0.0013325486	0.0015027763	0.0006649505
Cramér–von Mises criterion_29	0.00014239542	-0.00054350635	7.8829726e-05	-0.000108660504	0.00077312154	1.678688e-05	-0.0008870241	0.00053544657	0.00040842174	-0.0001324194	0.0005118492	0.00021242327	0.00044258154	0.00019222715	-0.00046637096	0.0006172083	0.0002372148	-0.0005637108	0.00032665228	-0.00066084415	0.0003998507	0.0002227227	0.00024383015	0.0002933153	-0.0004062017	-0.0003755128	-0.0001075052	8.2773986e-05	8.243439e-05	-0.0001734301	5.9799582e-05	0.000893952	-0.00033628807	-0.00012118651	-0.00043541123	0.00012972062	0.00048499936	-0.00027540297	1.0947534e-05	-0.0004927206	-0.00028516827	-1.6719283e-05	-0.0004176499	-0.0004407024	0.0009399809	-0.0006879499	-0.00026333862	0.00014010843	0.00015742061	0.0006927481	0.0005446813	-0.00030972404	-0.00016036573	-0.00065493566	-7.319958e-05	-0.0008031847	-0.00011899163	0.0007056011	-0.0007450755	-0.0002886667	0.0006082664	0.0004822609	0.00058177364	-0.000105353865	-0.00019496333	0.00021133486	-0.00029181797	0.0009423824	-0.000112200876	-0.0003659205	0.00017198636	-0.0007821688	0.00020922092	0.0001868224	-0.00046428776	0.00020183712	0.00014916401	0.00053686375	-0.00016689808	-0.00044980794	-0.00010304467	9.598577e-05	0.00015358502	0.000121500794	0.00030909965	-0.00016279508	9.600543e-05	-0.0003300634	0.00033458593	-0.0007106734	-0.00075509015	0.00023780798	0.0004363669	-0.00042221107	0.00027046155	0.00022659462	0.00029022913	0.00021879208	0.0002448372	0.00085400493	0.00061461364	-0.00022261005	-5.780887e-05	-0.00070486485	0.00079190853	-0.00051160913	-0.0004102799	-0.00029204402	0.00010087977	0.0001281856	-0.00013974519	-0.00039081555	0.0002517281	-0.00016818568	0.00025056518	0.00025576912	0.0005111123	-0.0002941556	-2.9123894e-05	-1.964611e-05	0.000120871024	0.00050657836	0.00010900572	0.00083670614	-0.00016172623	9.985662e-05	-0.0005113942	4.8975206e-05	-0.00055488397	0.00066049333	-0.00012075284	0.00010943003	-4.5504148e-05	1.4492054e-05	-0.00046005668	0.00048561714	-0.00038969045	8.803391e-05	-0.00010952912	0.00012328054	0.00012520752	-0.00013625101	7.3795556e-05	0.00044085766	-0.0003853207	-4.5656365e-05	-0.00020353985	0.0002614261	-0.0005098615	-0.0010077221	-0.00022422355	-0.00044588093	-0.00010765761	0.0005897009	-0.00039152027	-0.00014394731	-0.00025133905	-0.00015093996	7.1389906e-05	-0.00038179784	0.00083374995	-0.000413397	0.00016739196	-0.0002716183	0.00029308302	0.00064707233	-0.0004380755	0.00021886546	0.00018555266	-0.00011091414	-0.0008304732	-0.0004160259	-8.960506e-05	8.569916e-05	5.6493584e-05	0.00017676514	0.00027568205	-3.9055652e-05	-0.00022174758	7.315903e-05	-0.00043391454	0.00072614057	-0.00017103809	-0.0005230765	0.00053223793	-0.0008806366	0.00029042765	-0.0003909602	0.00028135942	-0.00012518761	0.00033363345	-0.00035152305	0.0002785073	0.00024825856	-0.000419818	4.6795096e-05	0.00023451503	8.130963e-05	-9.6005526e-05	-0.00016662022	-0.00064310926	-0.0009893867	-0.00024581252	-8.554691e-05	-1.44973255e-05	0.00010614254	-0.0009352959	-0.0007688951	0.000118580196	0.00014602393	0.0005226346	-0.00054796244	-0.00045296884	-4.8695412e-05	0.00044953017	0.00075592677	-5.223506e-05	0.0003118924	-0.0012169534	-0.00043912017	-0.000168889	0.0004992662	-0.00029059732	-0.00021161423	-0.0001968985	2.2616365e-05	-0.0005045716	-0.0005448573	0.0003444262	0.0004895951	8.676547e-05	-0.00021660418	0.00014957014	-0.0012189078	-0.00058769085	-0.00061813294	0.0004090847	0.00045077075	-0.00059887243	-0.00029881563	-0.0005253453	-0.00079106726	0.0006405962	6.376465e-05	0.00033990515	0.00018947106	0.0007175704	0.00060784013	-0.00013878648	-0.00014936225	-0.00022865305	-0.00029671704	0.0002406326	-0.00031172374	0.0008637373	-0.00051663234	-0.0007372624	-0.00040790922	-0.00021267496	-0.00014494432	0.0002547804	0.0007368926	0.00049870234	3.2009768e-05	0.0010219133	1.8559886e-05	0.0004017485	-0.0004741326	0.00039973884	0.0009891939	-0.0001453572	-0.0004079074	0.00091496983	-0.0007744046	-0.00026019698	3.256969e-05	0.00025786285	-0.00014667635	0.00035879095	-0.00016487195	-0.0002650888	-0.00016355752	0.000490892	7.2469986e-05	0.0002026308	0.0006925997	-0.0005946643	-6.9440364e-05	0.00033454952	-1.10607125e-05	0.00011361206	0.00095836463	0.00018721023	-0.00082942675	9.022261e-05	-8.611805e-05	0.000101492464	0.0005526968	0.00018837847	0.00047305023
Cramér–von Mises criterion_30	0.00046553253	-7.364375e-05	0.0013075379	-0.00067771197	-0.00088693097	-0.00024509794	-0.0015412626	-9.63915e-05	-0.0015801785	-0.0016436935	-0.00052367593	0.00082222413	0.00021327099	-7.159777e-05	-0.0010406427	-0.00095529854	0.00085053005	-0.00015840771	0.0010848235	-0.0015512322	-0.00045514738	0.0016591159	-0.00023955875	0.0011908899	0.00041998056	-0.0012511702	-0.0007849136	5.6304933e-05	-0.0005981181	0.0005065588	4.7309724e-05	0.00044574705	-0.0005233452	0.00020408932	-0.0010610096	0.0015947453	-0.00074800436	0.0005334173	0.00041280093	0.0008425324	-0.0012646283	0.0006201072	0.00114131	-0.0011868168	0.0010029033	-0.0012888192	0.0015159723	-0.00052771426	0.001374494	0.000830473	-0.00048756154	0.0005116355	0.00021220853	-0.0007217852	0.0014751191	-0.00093541545	0.00057344313	0.00085382076	-0.001552138	0.00060942327	-0.00017334477	0.0015908917	-0.00039145717	0.0009727287	0.0013793687	0.0013928758	-0.0014345425	-0.000466872	-0.00014179236	0.00088510406	0.0012677031	-0.0013680153	0.0013731773	0.0014754544	-0.0015364437	0.0010829347	-0.0003681648	0.0016583421	-0.00022032285	-0.0010174881	0.0009479918	-0.00043623341	-0.00087708235	-8.3188206e-05	-0.0015960413	0.0001408705	0.000312142	-0.0015106018	-8.424503e-05	-0.0015509112	-0.00048707068	0.00027228362	0.00024689196	-0.00054489356	0.0005649447	-0.0011820754	0.0014590096	0.0013803951	0.0004651328	0.00012058633	0.00043867546	0.0011251728	0.0015203983	-0.0006770693	0.0015394548	-0.0016414213	-0.0011039935	0.0015800763	0.0014361129	0.0008070298	-0.0006170372	-0.0004027584	-0.001370399	-0.0010448139	-0.0014609091	0.00059654843	0.00015596343	-0.00088988873	0.0004025577	-0.000738	-0.00073534116	-0.00021073653	-0.00044100246	0.0015953947	-0.0008915071	0.001488037	-0.0013963376	-0.00027002362	0.00026555473	0.0011751537	1.6094291e-05	0.0008274745	-0.0011614597	-0.00013000658	-0.0003913328	-5.0341434e-05	-0.0011460384	-0.0013165937	0.00012711842	0.00061857025	0.00025082953	-6.368643e-05	0.0006016015	0.00035218475	-0.00069579756	0.00066319254	0.0006033302	0.00015894695	-0.0014023317	-0.00082139205	-0.001388359	-0.0016618685	0.0015553563	-0.00097485975	-0.00069733127	-0.0013723128	-0.0005238187	-0.00025504737	0.0008771356	-0.00016478027	0.00015650423	-0.0004045786	0.0012911141	0.0009774313	0.000472122	0.0011796433	-0.00096658233	0.00013425548	-0.0013893651	0.00050873676	-0.0005476563	-0.0016476674	0.00036348437	0.0016072023	0.001518608	0.0010998533	0.0004485032	0.0006684729	-0.00026891808	-0.00034915085	-0.0012545305	0.0011993207	-0.0006275213	0.0007472081	0.0008547531	-0.00046005793	0.0008790176	-0.0015466944	0.0007157029	-0.00036133794	0.0008767853	-0.0014794465	5.880989e-05	0.0009319936	0.00075644045	-0.0015812385	-0.0002709266	0.0010552199	0.0012484918	0.0011234891	-0.00027978708	-0.0010435146	0.0015891893	-0.00010043031	0.0007252884	0.0007735192	-0.00066302926	0.0005898929	0.0005369937	0.0013337473	0.00043042883	-0.0008581645	-0.0016048705	0.0004574857	0.0010015743	0.0004517392	-0.0005638923	0.00055383326	-0.001624698	0.00086768204	-9.71746e-06	0.0009688544	-0.0016181867	-0.0013146426	0.0010982294	-0.0014394067	-0.001021637	-0.00052696414	0.0009793224	0.00063892774	0.0016070177	0.0010346535	-0.0011921475	-0.0014204816	0.00041186064	0.0013280293	0.00044152408	3.607265e-05	-0.0014522139	-0.0006007509	-0.00053175155	-0.00066993164	0.0014005007	-0.0006087785	0.0008063806	3.5469613e-05	0.00012582856	0.0014646968	0.0010720302	0.0005177268	-0.00093584467	0.0004236242	0.00012960868	0.00079350104	0.00014505975	-0.0016649127	-0.000551451	0.00013159678	-0.0013986336	-0.0014767409	0.0012046722	0.00049687637	0.0012578708	0.0016295528	0.00035261692	0.0013000199	-1.1581223e-05	-0.00050357176	0.0012975784	0.0008801806	-0.00065242354	-0.00015650944	-1.6990873e-05	-0.0011792408	0.0005008385	0.0014738855	0.0016100244	4.9903876e-05	-0.0003704284	0.0010250008	0.00090235594	0.0012843932	0.0015729432	-0.00058892934	0.00023806539	0.0010760684	-0.0014257646	0.0002796119	0.0013923978	0.0007665269	0.0007549057	0.0011348219	0.0011499907	-0.0014569879	0.000101582016	0.0005316945	0.0009131297	-7.071427e-05	0.0012058635	-0.0010873943
