	0	1	2	3	4	5	6	7	8	9	10	11	12	13	14	15	16	17	18	19	20	21	22	23	24	25	26	27	28	29	30	31	32	33	34	35	36	37	38	39	40	41	42	43	44	45	46	47	48	49	50	51	52	53	54	55	56	57	58	59	60	61	62	63	64	65	66	67	68	69	70	71	72	73	74	75	76	77	78	79	80	81	82	83	84	85	86	87	88	89	90	91	92	93	94	95	96	97	98	99	100	101	102	103	104	105	106	107	108	109	110	111	112	113	114	115	116	117	118	119	120	121	122	123	124	125	126	127	128	129	130	131	132	133	134	135	136	137	138	139	140	141	142	143	144	145	146	147	148	149	150	151	152	153	154	155	156	157	158	159	160	161	162	163	164	165	166	167	168	169	170	171	172	173	174	175	176	177	178	179	180	181	182	183	184	185	186	187	188	189	190	191	192	193	194	195	196	197	198	199	200	201	202	203	204	205	206	207	208	209	210	211	212	213	214	215	216	217	218	219	220	221	222	223	224	225	226	227	228	229	230	231	232	233	234	235	236	237	238	239	240	241	242	243	244	245	246	247	248	249	250	251	252	253	254	255	256	257	258	259	260	261	262	263	264	265	266	267	268	269	270	271	272	273	274	275	276	277	278	279	280	281	282	283	284	285	286	287	288	289	290	291	292	293	294	295	296	297	298	299
Von Mises–Fisher distribution_0	-0.00033092528	-0.0004670539	0.00017467627	0.00015454453	-0.00032591674	0.00024581578	0.0004745433	0.000766984	-0.0008041162	-0.00057100697	-4.834258e-05	-5.0738698e-05	0.000201355	-0.0006967565	0.0008550979	-0.00020921025	0.00017550706	-0.00016327997	-4.574484e-05	0.00056542736	-0.00060517	-0.00010018068	0.0007848032	0.0003591992	-0.00016730408	-0.00037727176	0.0011368893	-0.00042611672	0.0004671237	-0.0007297412	0.00017573648	-0.00027309818	-0.00036305044	-0.00052459806	0.0005914648	5.78815e-05	-0.00017931519	-0.001214557	0.0006600859	0.0009054694	-6.473689e-05	0.0003463602	1.8804876e-05	-2.6166404e-05	0.000561852	0.0004002837	-0.00042772442	-0.00046484484	0.00014913076	0.00044820178	-0.0005628151	-0.00014916372	-0.0008968391	-3.1688447e-05	0.0007975612	-0.00046562505	-0.00021975038	-0.0001577768	-0.00049999467	0.00019480144	0.00020904103	0.00055802416	-0.00028963824	1.4156825e-05	0.00024527556	4.455026e-05	-9.761185e-05	0.0004226033	0.000476819	0.00047305663	-0.0005212358	0.0001305031	0.00023161402	0.00012268536	-0.00022325688	0.00022425952	4.6049383e-05	-7.485284e-05	0.00011768921	-0.00033053063	2.9901974e-05	0.0004727592	0.00032392025	0.0010048286	-0.00081099255	-0.00047103595	-0.00032841245	-8.11864e-05	-0.00012934141	0.00025318016	-0.0005640484	0.00046356273	0.00044117734	-0.0002814412	0.00049640524	9.657636e-05	-0.0002622583	-1.7167301e-06	0.00016237401	-0.00016873151	-0.00065832416	5.2949683e-05	0.0001595569	-0.00019664786	0.00060344476	2.4758885e-05	0.00018571952	0.00065233523	0.00010368911	0.00024674812	0.0006583602	0.00044623128	-5.587456e-05	6.6667206e-05	8.026553e-05	7.211308e-05	0.0003072937	0.00073898886	0.00041954563	4.0073e-05	0.00053301227	-0.00047523	-0.00016514208	-0.0002317742	-0.00040374062	0.00016237155	-0.00032932308	0.0003585447	-0.0002008178	-0.00039179152	-0.00014915268	-0.00046333438	4.007425e-05	-0.00020014597	0.00044738705	-0.00047901692	0.0005112294	0.00065299065	8.423468e-05	-8.919668e-05	0.0010058938	-0.0008101316	-0.0007668779	-0.00063579535	-0.00038135663	0.00016390791	0.00022269711	-0.00018621582	-0.00020866745	-0.00028394713	0.00042238375	0.00022896868	-8.984872e-05	-0.00022102073	-0.0007377737	3.8912975e-05	-4.6809902e-05	0.00023439198	-0.00021617716	0.0003129925	-0.00055871235	0.0007088867	0.00012399015	0.0005952826	-0.0003636991	0.0004992513	3.756595e-05	-0.00010098267	8.117813e-05	-5.245285e-05	2.3843673e-05	0.0008090114	-1.46128705e-05	-0.000537203	0.00097408367	-0.00042472608	8.252533e-05	-0.00027701358	8.6893255e-05	-6.725905e-05	-0.0007412386	4.4799253e-05	-0.0007524517	-0.0003787321	-0.00085505674	-0.0006442525	0.0004046696	0.0002319287	0.0008215715	0.00013999184	-0.00014892212	0.00016068011	4.90332e-06	-0.0006454069	0.00017136833	-0.00037640528	0.00036587674	-0.00037828655	-0.0003342387	-0.0005761801	0.00062602555	-0.00012361091	-0.00018760332	-0.00038487435	0.00028144714	0.00023092679	0.00022483063	4.6955265e-05	0.0002491144	0.00019891429	-0.0003938484	0.0006844557	0.0008351199	-1.6929185e-05	0.00014727558	-0.00042200205	0.00045197867	9.54152e-05	0.00072337093	-0.0007615412	-0.00038141423	2.3129385e-05	8.175514e-05	0.0003055447	0.0008796131	0.00030540442	0.00015215379	0.00080798415	0.0005753223	-0.00016103216	-0.00036594545	0.00013811197	-0.0003045763	-3.743136e-05	9.800763e-06	0.00014501953	0.0004506157	0.00026525982	0.00038441512	-0.00011900803	0.00045698386	0.0001729154	-7.828971e-06	-0.00075503514	-0.00064135063	-0.00015203767	-6.7321074e-05	-0.00013827343	-3.476341e-05	-1.2886803e-05	0.00068233925	0.00052754564	0.00013298204	-2.8869143e-05	-0.00017724835	-0.00026110074	-0.0005217656	0.00029813318	-0.00047692953	0.00046419102	-0.00017120798	9.474568e-05	-0.00029371542	-0.00035001506	0.0007193638	-0.0001789352	8.628447e-06	9.517041e-05	0.00040034772	4.6597164e-05	-0.00025620524	0.00018737209	0.00016560606	0.00021813763	0.00045968508	0.00018265346	-0.00021806457	-0.00036259618	0.000369193	-0.00038671275	0.00017180348	-0.00014569625	-0.00061501004	0.00043610405	0.00023855602	0.00043519898	0.00047084168	0.00028460263	-0.00033250367	0.0010111241	-3.4857214e-05	0.00036953168	0.00034265677	0.00013967838	0.0005963427	-0.00029524567	-2.2548256e-05	0.00015191005	-0.00019665071	0.0006597971
Von Mises–Fisher distribution_1	-7.682595e-05	0.00011281256	-0.00030135587	-0.00026575435	0.0005624664	-9.353527e-05	-0.00043233388	0.00026035172	0.00012291977	0.00038690513	3.2494925e-06	-0.00014241804	0.00092323154	0.000883302	0.00014694461	0.00053841353	0.0005553247	-0.0004092415	0.00036059812	-0.0004732271	0.00024165596	0.00033010365	0.0004344654	-0.0005504418	-0.00072160474	0.00012982584	6.407744e-05	-0.00012788645	-0.00016602279	-0.000669686	-0.00050000666	0.00045777467	-0.00067168183	0.00021975224	0.00019664837	0.000101975565	0.00090119237	-0.00078874396	0.000534332	-0.0005303113	7.318241e-05	-0.00037460608	-5.8117206e-05	9.029625e-05	0.00052220304	-0.00013585696	0.00025656357	-0.0003360562	0.00022867322	-9.732454e-06	-1.8738883e-05	-0.00058461033	0.00017923556	5.879966e-05	-0.0003546951	-0.00027336212	-0.0007446698	0.00093353057	-0.00060270226	-0.00051962887	0.0010120434	0.0005507377	8.16181e-05	8.3214385e-05	9.444581e-05	0.0008212991	3.8467904e-05	0.00090827	0.0003883022	-0.00033126932	0.0005173304	-0.00043474333	0.0009153174	0.00011873816	0.0001367927	0.00035935597	0.00055429986	9.666842e-05	0.0003169487	0.00031320305	-0.00064208923	0.00046629302	0.0010039755	2.0768705e-06	0.0004696574	-0.0004585378	0.00043565096	-0.00013935687	0.0004279318	0.00041817527	-0.0006981801	0.0007124157	-3.2121297e-05	-0.0006047054	-2.844202e-05	0.00063303654	3.6064204e-05	0.00011898453	8.386088e-05	0.00087240105	0.00027964613	8.571164e-05	0.00017661635	-8.505115e-05	0.00021371957	-0.00038032333	0.00064218923	-0.0005909198	9.362253e-05	-0.00044725384	0.00018300953	-3.9907558e-05	0.0005927043	0.00011141026	0.00020206548	0.0003732464	9.09989e-05	0.00034856884	0.0003484694	0.00025467933	0.00075942173	0.0007260886	1.1578917e-06	0.00027427365	-0.0005006449	-1.4347997e-05	-0.00068765867	0.00046198856	-0.00038843768	-0.00017995024	-0.00047571506	-0.00045876388	0.00039975593	-1.84112e-05	-0.0003710719	-8.756528e-06	0.00064465974	0.00022966195	0.00044076395	0.00024405165	9.199736e-05	-0.00039900996	3.143712e-05	0.0005039234	-0.00010521086	7.1439004e-05	-0.00032718945	0.00031985194	-0.00088669395	-0.00039534288	-0.00063117227	1.4855426e-05	1.1682611e-06	0.0006564618	-0.0004238758	8.185284e-05	-0.00032288991	-0.000470833	0.00036808118	0.00041623018	0.00045786172	8.049244e-06	-0.00032936488	-0.00059915305	-3.652554e-06	0.0005708267	-0.00028164	-6.8373745e-05	0.00047177932	0.0004896979	-0.00072311034	0.00011209999	-0.0005827622	-0.00023662846	-0.000184271	-1.7797487e-05	0.00052061316	-0.00042098507	-0.00078380154	-0.00019937722	-0.001067892	8.902174e-05	-0.0009968085	-0.0006597276	2.5074505e-05	-0.00084378954	0.00020163505	5.9242742e-05	-9.985488e-05	-0.00067285093	0.000387108	0.0005587923	0.0005186126	0.00048658974	-0.00014394491	0.00042286463	0.000539712	-0.000691583	-4.3365224e-05	-0.00065187545	-0.00046607852	-0.0002709865	-0.00011367552	-0.00035747144	6.7152585e-05	-0.00039150467	-0.0002432242	-0.00038629436	-0.00047896933	4.644745e-05	-2.727596e-05	-0.00035416798	8.166658e-05	0.00010063491	0.00015652047	0.0011086237	-1.1342367e-05	0.0003077984	-0.00046109516	-0.0004181587	0.0002557311	-0.00013968581	-0.00058128283	-0.00026654973	-0.00020401135	4.7585072e-05	-0.000482189	-7.6640084e-05	0.0006267464	0.0006989093	-0.00013310437	-0.0003169386	8.416409e-05	-0.0011472795	-0.00036671522	-0.000989859	0.0006791639	0.00077455956	8.1217855e-05	0.0001831644	-0.00057851133	2.607492e-05	0.0005890567	0.00051346095	-0.0005102747	0.00075984246	0.00091359304	0.000110364716	-0.00012039921	-0.00040919756	-0.00012837716	-0.0003494777	0.00040314556	-0.0007258061	0.0003610799	-0.0002206833	-0.00019325549	7.092079e-05	-0.000526599	0.00048721762	0.00065887795	0.00065940525	-0.00012503518	0.00023655561	0.00077921286	0.00010022816	0.00045156365	-0.00019949247	0.00068386545	0.00055585057	0.00019718187	0.00052290916	0.000831415	-0.0011632945	0.0003578475	-0.00030503565	0.00053520204	-0.00034698992	-9.760193e-05	-0.0009158264	-0.00017271472	-0.00064774003	8.635865e-05	-0.00021456135	-0.00010280268	0.0008332064	-0.0003757631	5.848423e-06	-0.0007439156	-0.0008509588	0.00029331513	0.0005129977	-0.00021245358	-0.0010924895	-0.00044268483	-0.00027103882	-0.0007424038	4.5998895e-05	-0.00083733344	0.0006330364
Von Mises–Fisher distribution_2	-0.0005514363	0.0005434683	0.00090797944	4.2456508e-05	0.00067116227	0.00050979544	0.00024343022	0.0001027087	-0.00023055142	-0.0012018651	0.00020961813	-0.0010700823	0.0006106356	0.00015671762	0.00084517646	-0.00030706832	0.0010591908	-3.7354184e-05	0.00026098135	0.00037694644	0.00047414724	4.5509852e-05	0.00013647172	-0.00019752014	-0.0005338989	0.0002597941	-4.648949e-06	0.00044886538	-2.8740693e-05	4.8072518e-05	0.0006278872	0.00024535434	0.00041637532	-0.00041503503	-8.672726e-05	0.00041003738	-0.00016183422	0.0005695766	-0.0005166091	0.0003881722	-0.0010110604	0.00034161168	0.00031545636	-0.0010075569	0.0007381228	0.0002296596	-0.00062597304	-0.00020182245	0.0009790399	-0.0002877569	-0.00014226348	0.00027851554	-0.0011736497	0.0005824525	0.00033211522	0.0004822169	-0.00072264037	-0.0014398751	0.00026234027	0.00021634088	0.00048896315	-0.0005499556	0.00033388744	0.00029656038	-0.00037261812	0.00043791707	0.0003308551	-0.00042489255	0.0005348587	0.00041028755	0.00079327455	-0.0006721285	-0.0008230295	0.0005841251	0.0007379599	0.001173134	4.0656345e-05	-0.00015027623	8.4979656e-05	-0.00037534034	0.000112410635	0.0006231432	0.0006603628	0.00060689455	-0.0002799344	-0.000704118	0.00025969138	0.00039686562	-6.650431e-05	-2.8586852e-05	0.00034996786	-0.00026875985	0.0004371317	-0.0006983121	0.0004811644	7.8452664e-05	0.00012652825	-0.00030455255	0.00020853824	-0.00061374623	0.0001271802	0.0006911542	0.0011576026	7.152827e-05	-0.0006597506	-0.0005871448	0.00020769615	0.00028633352	-0.00024151242	8.9758505e-05	-2.2675958e-05	0.0009207719	-0.0006745648	0.0007431892	0.00043616912	0.00074026687	-0.0004980731	0.0011967038	0.0004550376	-0.0005715438	0.0011022374	-0.00022336522	0.0006868765	0.001000703	-0.0006452282	0.00044812905	0.00085152715	-0.00038595975	0.00022374371	-0.00013809126	0.00035073576	-0.001358901	0.0013049599	-0.00017133994	0.0006295103	-0.00029723128	0.00022683117	-0.00068709225	-4.1343807e-05	-5.884651e-05	-0.00040073565	-0.00015865419	-6.984667e-05	0.00044318973	-0.0003492022	2.1017893e-05	-0.00087271055	-0.00039073243	-0.00081244024	-0.00025205332	-0.00033620527	0.0008269842	0.00029922338	-1.2195708e-05	9.966389e-05	0.0010706264	-0.0005558995	0.00042936485	-0.00016662841	0.0009970455	-0.0005122091	5.644785e-05	-0.00029193837	-0.00053739647	-0.000929537	-0.0005542664	0.00090288	-0.00057889736	0.00028748892	-0.000104052866	2.381349e-05	-0.00021642307	0.00037081458	0.00029934355	0.0009138966	-0.00044335457	0.0009405879	-0.0011829921	0.0003768381	-0.0009893264	-0.00027986598	0.00037427	-0.0004206051	0.0002639986	-0.00023314566	-0.0007103957	-0.00067823083	0.0006221311	0.00027203604	-0.0005918729	0.00034745687	0.00042499285	-0.0007724154	0.00042281114	0.00027580053	-0.00031723117	0.00062972936	-0.0013568489	5.904422e-05	5.367247e-05	-0.00075861457	-0.00022765023	-0.0006614468	-1.7204671e-05	0.0001630847	0.000859128	0.0011671403	0.00022829023	0.00065646763	-0.00012624054	-0.00014405668	-2.0612119e-05	0.00048129665	-0.0005221842	0.0011231295	-0.00011715842	0.0006875152	-0.00023149124	-0.0010872777	-0.0007463014	0.00089213095	-0.00035154037	7.380293e-05	-0.00043124848	0.0011033941	-0.00033880802	0.0001229273	0.00052735384	0.0004945172	-0.00056040945	0.00051652634	0.00024384772	-0.00013752711	-0.00081300875	0.00010594609	-0.0007969676	0.00076517375	-0.0005041115	0.00073640613	-3.8264978e-05	-0.0002612128	0.00032818166	-3.1531832e-05	0.0006788958	-0.0013152933	0.00018764207	0.00015508686	8.288113e-05	-0.00060316676	9.326098e-05	-0.00014032004	0.00034060437	0.00017512294	0.00037117527	-0.00019426724	0.00026156133	-0.00079392944	-0.00039030623	-0.0011860547	-0.00022002426	-0.000110820925	-0.00038094338	-0.00030143152	2.9122117e-05	-0.0005657499	0.00029318672	-0.0007298747	0.00031446022	0.0003373321	0.000772359	0.00041141323	0.00035729227	-0.00031711278	-0.0005046972	-0.00016772031	0.00030036387	-0.00019514792	-0.0007026226	0.0009003926	-0.00027430928	0.00058523094	-6.3198466e-05	6.220684e-05	-0.0004654104	-0.0007237624	-0.00016862474	0.0011648857	0.00043176868	-0.000109313776	0.0002302245	-0.0008024794	0.00052447896	0.0007355306	-0.0010614552	-0.0003038659	-0.00041363892	-0.00018522602	-0.00086170086	-0.00010321236	0.00032201858
Von Mises–Fisher distribution_3	0.00017883659	-0.00046156324	-0.00066767057	-0.00056195224	0.00080249534	0.00041912837	-0.00011973039	0.00022654398	0.00023057533	0.00014934335	0.0003268368	0.0002945411	3.328444e-05	0.00042125132	-0.00012504922	0.0002950149	1.1510235e-05	-6.284084e-05	-0.00029513004	-1.7148035e-05	-1.4526871e-05	0.0008159768	0.00055282033	0.00021739578	-0.00015195653	0.00019947013	-0.00039248393	0.0006783503	-0.00012684066	-0.00019206178	0.00013907846	0.00047653518	-0.0001760692	0.00030002193	-0.00019002282	0.0001038739	0.00029941185	-0.0004695746	0.00030526772	-2.3740175e-05	7.693201e-05	-0.00012216577	-0.00048203176	-0.000390936	-0.00061661383	-6.865456e-05	-0.00024383805	-0.0002381961	0.00012586203	1.4875084e-05	0.00049191766	0.00010121501	-0.0002406087	-0.00011898585	-0.00017221337	-2.4129558e-05	-0.0008475967	0.00025210078	-0.00043679564	3.1311283e-05	0.00064375397	0.00019782099	9.801298e-05	-0.00020214776	-2.612746e-05	0.00044997397	0.00053617917	-0.00046411614	0.0002959244	-0.0008148446	0.0007223768	-0.00079928135	0.00024231522	-0.00010585121	0.00029436024	-8.34749e-05	-0.000111056	0.0005444005	-4.5505053e-07	-6.0550723e-05	3.258391e-05	-0.00026026723	0.0008873634	9.346111e-05	0.00037927492	6.920687e-05	0.00032091347	-1.2749399e-05	0.00023690949	0.0002564894	-0.00022742643	0.00028183262	-0.00038022283	0.00055750593	0.00020922806	0.00040582006	-4.705584e-05	0.0003305364	-2.7204203e-05	0.0006861682	0.0004552465	-0.00037831033	-0.00036560802	-0.00033072522	-0.00019329895	-0.00045179672	0.00027973374	-0.00019680314	-0.00044136602	-0.00020111362	-0.00039967976	-0.00022618817	0.00063982076	9.995771e-05	0.00035858902	4.9035356e-05	0.00046963943	-0.0003829127	-2.7413034e-05	0.00010941436	3.145187e-05	0.0005031968	-0.00025023727	-8.4887375e-05	-0.00024352664	9.583013e-05	-9.134493e-05	0.0007530574	-0.0004139777	1.6832715e-05	0.00017819296	-1.0247459e-06	7.330188e-07	0.00018198228	-0.0006089942	0.0006065105	0.00014873658	4.528978e-05	0.0008924103	-9.127621e-05	-6.1296545e-05	-0.0002316099	-2.6768714e-05	6.9010807e-06	0.00010211857	8.112164e-05	-0.00012643459	-0.0002311238	-0.0003326505	-0.00018956974	-0.0010990173	0.00036539556	-0.0002975964	-0.0002873861	1.1219604e-05	0.000271199	-0.00047906608	-1.08846e-05	0.00014750876	0.000169056	0.00038728036	0.00015093363	-0.00032500637	6.8398185e-05	-0.0003571884	0.00052782876	-0.0005383758	-0.00021415256	-7.05946e-05	0.00074764923	0.00024719836	-0.0002721094	-0.00096669764	0.00045667696	-0.00077926	-5.6515313e-05	0.00053232117	0.00015975098	-0.00083786825	-0.00015353678	-0.0006033455	0.00027461164	-0.0006361455	-0.00017605418	0.0006100275	-1.04335095e-05	0.00020970574	-0.00076427514	-0.00012263493	-0.00041822004	0.00071076927	-1.033414e-05	8.030038e-05	4.5286975e-05	-0.00045163918	0.00022971565	5.157691e-05	-0.00078215287	0.00030290196	-0.00069068343	0.00035806137	-0.00025591205	-0.00016739388	0.0003691522	-0.0001606821	-0.00043018302	-0.00011519075	-0.0002041208	0.00025696438	0.0002814402	0.00043958402	3.3501783e-05	-0.00020686403	9.795379e-06	-9.187463e-05	0.0005423567	0.00077635143	0.00038421477	-0.00018270996	-0.000714073	-0.0005120441	-0.00018489116	-0.00028175453	-0.0002941557	-0.00084319076	-5.9791328e-05	-0.00042414476	-0.0003322918	0.0005049272	4.843308e-05	0.00020236462	-0.000540935	0.00045459185	-0.000602727	-0.0005939743	-0.00023432467	0.0004643338	0.0006099941	-1.01749565e-05	-0.00016572385	-0.00038340967	-0.00049283466	0.00016108561	0.00021960297	-0.00035236016	-0.00015099788	0.0004697868	0.00037495885	-0.00084175036	-5.397835e-05	-0.00019838284	0.0003547341	7.724238e-05	-0.00039936707	0.00073770346	0.00038949866	-0.0004243271	-0.00022717933	-0.00097753	0.00040963653	-7.973039e-05	0.00044256798	-7.867494e-05	0.0002810624	-9.7817916e-05	-0.00041120106	-0.0001990084	-0.00047114282	0.0005670743	0.0008742304	-9.68258e-05	-4.1590985e-05	0.00027519197	-0.00024038077	-9.075302e-05	-0.00035123783	0.00027300743	-0.00016713892	-1.6416909e-05	-0.0006839623	-0.000591432	-0.00039085574	7.6657045e-05	0.00033448092	-2.7063807e-05	0.0005601116	-0.0005247052	-0.00026641288	-0.0006471961	-0.00017763994	8.303251e-05	0.00046882906	-0.00014829566	-0.00015209262	-0.0007439796	0.00018380124	-0.00044013862	-0.00032782357	-0.00040767025	0.0008583931
Von Mises–Fisher distribution_4	2.1116437e-05	-0.00032707083	-0.00044824748	-0.00032736035	0.00051980215	6.806018e-05	-0.00039224356	0.00033684407	0.00026932877	0.00044751514	0.00021698797	0.00016567142	0.00027485157	0.0001307726	0.0003432142	0.00038167907	0.0004154836	-0.000560399	0.0001225701	-0.00034525868	8.635645e-05	0.00020237274	0.00064823864	-0.00012345835	-0.00035079027	1.1702339e-05	-0.00014735802	-9.25896e-06	-0.00013599418	-0.0003458619	-0.00017382352	0.00031037256	-0.0002923516	0.00028733004	0.00021907841	0.00020384406	0.00038818823	-0.0003840998	0.00018099856	-0.00024430902	-5.467062e-06	-0.00029109803	-0.00044516294	-0.00020747825	0.0003041617	-0.00019723327	-0.0001334325	-0.0004462064	-2.414812e-07	0.0001969875	0.0002752382	-0.000587366	-0.00025397656	-0.0004335718	-0.00020451644	-0.0001321635	-0.00057463895	0.00057495676	-0.00052132655	-0.00013629896	0.000611531	0.0002295523	0.00013114727	-0.0001337914	-3.487996e-05	0.00049223745	0.00019388786	0.0005239836	0.00035712973	-0.00055539864	0.00017561001	-0.00040102715	0.00043126382	-0.00018217076	-0.00017999424	0.00024594535	0.00052225625	0.00032018468	-2.2195773e-05	-0.00017617518	-0.00038515544	0.00024368073	0.0007368418	0.00027262978	0.00038248018	2.9776198e-05	0.00028532385	-0.0001757258	5.5868702e-05	-0.00020378387	-0.00043594252	0.00052493653	4.3624823e-05	-4.1979947e-05	-0.00025174714	0.00040736655	-3.0843803e-05	0.00016221638	0.00020764885	0.0006076356	0.00012782047	-0.00013788707	-9.960717e-05	-0.00041351587	0.00016262665	-0.00038342597	0.00042128877	-0.00042688937	-9.6493764e-05	-8.524383e-05	0.0001335208	-0.00018851088	0.0005013522	0.00010673787	0.00020480622	0.00019148519	0.0003979753	6.1014962e-05	0.0003642058	2.0857206e-05	0.00028249796	0.0001523379	-8.626993e-05	8.1252176e-05	-0.00042874532	-8.21616e-05	-0.0003036678	0.00044717712	-0.00023101416	-8.519165e-06	-9.098764e-06	-0.00034565054	9.8694465e-05	-6.271534e-05	-0.00030157596	0.00037516083	0.00024541793	0.0006141305	0.00017993708	6.76587e-05	9.502483e-05	-0.00041961993	-0.00022189584	6.1463674e-05	-0.00023814975	0.00020754288	-7.870589e-05	-0.000134629	-0.0005455225	-0.0003371833	-0.0005040347	8.039342e-05	-0.00014801095	0.00033315757	-0.00047735762	-0.000111530986	-5.838626e-05	-0.0002507119	0.00011986637	0.00016673133	0.0005762766	6.643571e-05	-0.00024997097	-0.00022837502	-0.00017659586	0.00014018267	-0.00027712155	-0.000100470774	3.3500128e-05	0.00017521996	-0.0001822363	4.7181868e-05	-0.0004345949	-6.959114e-05	-0.0004438601	-0.000325824	0.00021869641	-0.00018845264	-0.00052571273	7.773213e-08	-0.00056244445	0.00015885608	-0.0006523023	-0.00053988805	0.0003538286	-0.0005638484	0.00021232417	-1.6171456e-05	-5.9711365e-05	-0.00016995256	0.00032160932	0.00030495788	0.0003953216	0.00013007669	-0.00028828508	0.00011660199	0.00013696874	-0.00047070172	-1.5227007e-05	-0.00046240832	-0.00025030816	-0.0005622572	-0.00018676929	3.819672e-05	0.00018369874	-0.00047373853	-0.0002532479	-0.00048367778	-0.000100386955	5.4167034e-05	-1.884894e-05	-0.00017967039	6.9845686e-05	-6.7267385e-05	0.00030425424	0.00047064375	0.00033517164	0.00032922547	-0.00020373956	-0.00054349116	-0.00025337696	7.938069e-05	-0.0004774986	-0.000120892386	1.6089132e-05	0.00031726182	-0.00028649456	-0.00027016064	0.00057938846	0.00038510465	-8.335477e-05	-0.0005455983	3.3389413e-05	-0.0007369921	-0.00034625555	-0.00044099137	0.00041428304	0.00062746427	5.02039e-05	-0.00023004573	-0.000109033004	-0.00017982525	0.0003818386	0.00012320653	-0.0003078182	3.9988787e-05	0.0008467418	0.00019618303	-0.0003631782	-0.00045135102	0.00015638347	1.0434162e-05	0.00022328304	-0.00025973376	0.0004069752	-0.00010982683	-0.00016575765	-3.2694115e-05	-0.00048712082	0.0003113515	-5.2026207e-06	0.0005659063	5.0436436e-05	-2.318426e-05	0.0007588836	-0.0002232812	0.00042074133	-0.00047023591	0.0003100719	0.00050397456	-0.0001706175	0.00013708911	0.0003943678	-0.0006396484	0.00014518523	-0.00031946617	0.0003661277	-0.0003123134	-5.3524425e-05	-0.0006383023	-0.0003640338	-0.00042599146	0.00016164563	0.00024278431	0.00013022238	0.00048728526	-0.00037336323	0.00015784311	-0.0003057405	-0.00047361373	0.00014958673	0.0003266918	-9.3142575e-05	-0.00062662363	-0.00049031165	-0.00015934488	-0.00052148046	4.9074162e-05	-0.00040419234	0.00046487726
Von Mises–Fisher distribution_5	0.00023823592	-0.00027518507	-0.00055959524	-0.00073408574	0.0007221918	-2.114421e-05	-0.00011223056	0.0003135804	0.00024777968	0.00012197327	5.3982494e-05	6.185798e-05	0.00018519294	0.000112521746	-0.00015866016	0.00015107803	0.0005068523	6.386229e-05	1.1038641e-05	-0.00024558598	0.00015177016	0.00016106866	0.0003932653	-0.00010974352	-0.00013556196	7.5691554e-05	-0.0002840974	0.00013756014	-5.930341e-05	-0.0002598504	-7.546679e-05	0.00014311537	2.8212617e-05	0.00040712254	0.00012721536	0.00028915118	0.00032893653	-0.00037630342	7.885522e-05	-0.00019623591	3.9354098e-05	-0.00017760038	-0.0002593411	-0.00019861993	-5.912129e-05	-3.654375e-06	-1.4088227e-05	-0.00032327804	-0.0003245773	-4.5596673e-05	0.00022039225	-0.00061151956	-0.00016916652	-0.00023733928	-0.0005719329	-0.0005176805	-0.00065480836	4.0168165e-05	-0.0005003659	-5.2792806e-05	-2.5055084e-05	0.00031466625	0.0001788995	0.0002334893	-5.7746263e-05	0.0004019084	0.00044345582	0.00013271098	0.00018318646	-0.00048174747	0.00017969316	-0.0003051345	0.00046539228	-0.00027034176	-0.00019527298	0.00022774047	0.00054886664	9.052661e-05	-0.00014005676	-0.00027049138	-0.00036253026	-0.00027122276	0.00071294187	-0.0001426657	0.0002853719	8.6667365e-05	0.00068756583	-0.00031113523	2.1600805e-05	-3.587147e-05	-0.00031081174	0.0003620018	-5.333914e-06	0.00013801239	-0.00041122292	0.00037211523	0.00010985277	0.00024253957	-0.00024286317	0.00038268825	0.00033745315	-1.2626614e-05	-0.00035499144	-4.6529335e-06	0.0001648327	-0.00021634881	8.383568e-05	-0.0003476257	-0.0002052957	0.0001081393	-0.00019212149	0.00013372941	0.00032190816	0.00011778241	8.4786545e-05	-0.00013669771	0.00019206552	-0.00028899487	0.00059042295	-3.1244388e-05	0.00025879723	4.86872e-05	-0.00032942806	1.554699e-05	-0.0006017125	-1.6112996e-05	-0.00034758242	0.00045657202	-2.864279e-05	-0.00010038386	0.00016102463	5.3988257e-05	-1.2937304e-05	0.0001028185	4.0720068e-05	0.00071709836	0.00025112697	0.0005853737	0.00039360297	0.0001173114	4.2892918e-07	-0.00016738762	-4.4700428e-05	0.00042069217	6.224314e-05	0.00021301178	3.0011468e-05	4.5824746e-07	-0.0004084762	-0.0004345514	-0.00057762273	5.1264407e-05	-0.00031226213	-3.5524343e-05	-0.00059154676	-6.553945e-05	4.0324212e-05	-8.8899615e-06	-0.00013675677	-8.207082e-05	7.078531e-05	0.0001545829	-0.00032108487	-1.2199836e-05	-7.96931e-05	0.0003580855	-0.00021116636	-0.00020845023	0.0001224772	-2.9508132e-05	0.00022497476	0.00031814727	-0.00023527988	5.1494095e-05	4.58598e-05	0.00019306634	0.00028380097	-0.00033097883	-0.0005113178	-7.063286e-05	-0.00029176	0.00036050324	-0.0005921983	-0.00049773534	0.0005120883	-0.00013417094	-0.00011522308	-0.00023252872	3.4158584e-05	-0.00022396717	0.00032422447	0.00019619809	0.00015408706	0.00015486036	-0.00017780515	0.0002856438	-0.00028901713	-0.00030769614	-0.00016613519	-0.00028285728	-1.0029842e-05	-0.00060127914	-0.00043129965	0.00022795273	-6.921774e-05	-0.00042449412	-0.00013945063	-0.00050144875	6.952265e-06	-7.558575e-05	-0.00018765128	-0.00023262479	7.645085e-05	-0.00010000602	0.0005235271	0.0008208064	0.00019152708	0.00020677356	-5.7851405e-05	-0.00017039581	-0.0004076422	-8.3228166e-05	-0.00056396617	-0.0003613667	3.2699605e-05	9.339704e-06	-0.00011571232	-0.00035161286	0.00043467604	5.318476e-05	0.00015310291	-0.0006498426	-0.00013886885	-0.00048125652	-0.00025033733	-0.00027067828	0.00045467424	0.00032560722	0.00011664537	-2.240631e-05	-0.000121160665	-0.00019452473	-4.5768607e-05	-0.00014773101	-0.000110818	0.00018043819	0.0006125242	0.00012795861	-6.998228e-05	-0.00016428309	-0.00016870013	-9.882762e-05	0.00026873066	-9.529984e-05	0.0004859999	0.00012692489	-0.0002748326	-0.00029764554	-0.00072029844	0.00031286824	-0.00048014894	0.00053327554	-3.7929014e-05	-1.5030174e-05	0.000103121136	-0.00041748048	2.2138958e-05	-0.00010862232	0.00032846903	0.00066604314	-0.00033331878	0.00042425326	0.00021368981	-0.00024991186	1.8867095e-05	-0.00021175462	-1.5302101e-05	-0.0005689995	9.189591e-05	-0.00043825302	-9.0960035e-05	-6.6996115e-05	0.00026605162	-0.00022103931	0.00040177783	0.0003183691	-0.00039227004	5.3866544e-05	-0.0002476533	-0.00035513606	-0.00020760477	-8.476247e-06	-0.00024944334	-0.0004002653	-0.00038886402	-0.00022205058	-0.00064291793	-0.00012248181	-0.00029167556	0.00039362497
Von Mises–Fisher distribution_6	0.00012263133	-0.000386012	-0.00021418218	-0.00017858842	0.00025422592	-0.00017134486	-0.00015832398	0.0008418604	0.00012524851	3.782421e-05	0.0002510104	-0.0001409088	0.00038031727	-0.00031113572	-7.022534e-06	4.3814045e-05	0.00036781764	-0.00035992218	-0.00024557425	0.00028485229	-0.0005242359	2.7063672e-05	0.00058815494	6.5170796e-05	-9.776675e-06	9.084934e-05	0.00033213798	0.00014889936	-5.577e-05	-0.0003439466	0.0003218541	0.0005371984	-0.00024907378	-0.00025235614	0.00011925461	0.00044954816	0.00011507965	-0.0008019334	0.0002864587	1.8546874e-05	-0.00027079822	0.0001265832	-0.00051084755	-0.0005996772	0.00033014754	-9.1374575e-05	-0.00043783564	-0.00023205898	0.00026668317	0.0005286991	0.00031847085	-0.00032149686	-0.0006651876	-0.00022287434	0.0002481674	-0.00021228215	-0.0005548163	0.0005024629	-0.00041002507	0.00026319327	0.0005382194	0.000104784915	6.1699444e-05	2.4581626e-05	-0.00015938787	-0.00015175344	0.0002687013	0.00043866146	0.00042147952	0.00010451694	0.00018491429	-0.00019737001	0.00013075116	-0.0001798482	-0.00028468962	-0.00021253855	0.00046566423	0.00018179597	0.00019742627	1.2329411e-05	0.00024851842	-2.6674294e-05	0.00060997275	-6.167878e-06	1.7398075e-05	-0.00017042882	0.0003204793	-0.000107913394	0.00036951894	-4.9137932e-05	-0.00069297885	0.0005304954	3.6139365e-05	-5.528993e-05	0.00026212286	4.361233e-05	-0.00020822193	-3.2627606e-05	0.0003658477	0.0002500192	0.00017018749	-0.000400746	-0.00023173218	-0.00039361193	0.00024804042	-0.0001045892	-0.00020251858	0.00021165003	-0.00012381811	-0.00024448105	7.100777e-05	0.00027324108	0.0003779477	0.0003977671	0.00020216967	0.0002617761	0.00045350505	0.00030719882	0.00020529104	0.000117802556	0.00049892854	-0.00013150362	-0.000448354	2.9464718e-07	-0.00044362873	-0.00015063227	-1.47228775e-05	0.0003848395	-0.00018913281	-8.0184645e-06	-0.00013312542	-0.0005584378	-0.00031540063	0.00028853843	-0.00014512044	-0.00023694632	0.00024458612	0.00050395227	0.00023752317	-0.00032287868	9.752073e-05	-0.00057598547	-0.00029556066	-0.00027620824	-3.6901693e-05	2.4989862e-05	-0.00029070736	-0.00017347609	-0.00057374197	-0.00071265205	-1.5996151e-05	0.00032338992	-0.00038696086	0.00017820575	-0.00026012832	2.8916467e-05	-5.0969382e-05	3.4934477e-05	-0.00032099074	0.00010585529	0.00013995866	0.000117387026	7.848165e-05	-9.237805e-05	-4.2250373e-05	0.0004261356	-0.00044109207	-0.00027110035	-0.00023007434	0.00021265668	8.5661755e-05	-2.6008327e-05	-0.00017378943	0.00012136994	1.2470443e-05	-1.6378472e-06	0.00026977004	8.33642e-05	-0.00030363182	0.000100349855	-0.00047332587	0.0001933724	-0.00043240268	-0.0004772015	8.3776285e-05	-0.00011421087	0.00023244723	-6.833361e-05	0.00028423886	-0.00018249296	2.4006249e-05	0.00011385496	0.0004370959	-0.00041209548	-0.00029749694	5.4637712e-05	-1.4158473e-05	-0.00024366891	-0.00013956497	-0.00029083187	0.00020766378	-0.0003420232	-0.00050069013	-0.00010913411	0.00016261396	-0.00023095473	-6.862251e-05	-0.0004647637	0.00018623364	0.00010844201	-0.00010211433	-0.00037432497	0.00020486476	-0.00038167078	0.00041627785	0.00017184103	0.0004993683	-3.337669e-05	-0.00013849365	-0.00074724306	-9.72324e-05	0.0003641833	-0.00024304	0.00026545886	-3.0998646e-05	0.00037573796	-0.00016686007	-3.5603778e-05	0.00027399004	-4.9671944e-06	4.2741496e-05	-0.000534951	8.6647466e-05	-0.00030785668	-0.0002796958	-0.00014122712	0.00050374924	0.00043409958	0.00017574204	-0.00019016996	-0.000279383	-0.000188827	0.0006918596	7.54902e-05	-0.0002897839	8.6456487e-07	0.0007318156	-4.3041447e-05	-0.00038255798	0.0002643066	-7.0498405e-05	0.0005374541	2.2366617e-06	-5.465125e-05	0.00016759244	0.00013669433	-0.0006191469	-0.00026178345	-0.00055086217	0.00067336834	-0.00031896064	0.00042207591	1.9584259e-05	-0.00020373786	0.0003400643	-8.186223e-05	6.262464e-05	-0.00024329172	0.00035704236	0.00039497841	-9.278393e-05	0.00038289407	0.0001683147	5.363555e-05	1.889162e-05	0.0003138391	-0.00014578181	-0.00021884803	-8.3325e-05	-0.00035081498	-0.00050478405	7.457126e-06	4.354942e-05	-1.5210774e-05	1.2665238e-05	0.00062021666	-0.00034186928	0.00039609428	-0.00017565305	0.00015341796	-8.623918e-06	0.00047771927	0.00027309457	-0.0007391878	-0.00019200341	0.000194342	-0.00013898245	-5.4589073e-05	-0.0005255468	0.00051370444
Von Mises–Fisher distribution_7	-0.00024869767	-0.00018439803	-0.00021463273	-0.00014432527	0.00039657927	-0.00015534747	-1.9036175e-06	0.00047222045	-1.77169e-05	-1.0947612e-06	0.0001608889	-9.119281e-05	0.0005906432	-8.582978e-05	0.0005426025	0.00014185441	0.00050615	-0.00045108356	-1.4528782e-05	-7.0191316e-05	-3.6807873e-05	0.00010419905	0.0004691173	0.000105031824	-0.00020787954	4.685495e-05	0.00023291145	-9.646101e-05	-6.883336e-05	-0.0002409037	-3.0569693e-06	0.00040965702	-0.0001429206	6.3010324e-05	0.00017841895	0.0001447265	0.0003763335	-0.00047565546	7.1675044e-05	-2.2647882e-05	-0.00023485355	-0.0001574932	-0.00018823445	-0.00020095706	0.0004321304	-0.00010236682	-0.00046090188	-0.000335351	0.00019429205	0.00014002335	-8.7569155e-05	-0.00043520064	-0.0005230844	-0.00024544584	-0.00016005484	-6.65785e-05	-0.0005974438	0.0003628435	-0.00023706052	2.6059462e-05	0.0004842114	9.3726536e-05	0.00014095484	-0.0001340952	-1.3338562e-05	0.00013358875	0.00022007384	0.0005247192	0.00036897362	-0.00012293393	4.491006e-05	-0.000417313	0.00023433904	-1.36635745e-05	-4.8313803e-05	0.00017602567	0.0004894455	0.00012949505	-4.0743846e-05	8.9181434e-05	0.00010070128	0.00032245528	0.00062387047	0.00044123316	-4.0574545e-05	-0.00038172374	0.00026288806	3.1728625e-05	4.8545113e-05	2.7484346e-05	-0.00055770855	0.0004973886	0.0002187239	-0.00013084435	3.2839143e-05	0.00022420178	-0.00019821346	-5.5069937e-05	0.0002648769	0.00030434414	-2.1200773e-05	-0.000101183185	8.5664215e-05	-0.00018518214	0.00023417764	-6.560237e-05	0.00010886859	-0.0001312768	-0.0002536201	-1.9087418e-05	0.00030866454	3.5382789e-06	0.0002759431	0.00016838692	0.00037657967	0.00025148314	0.00030241406	0.00044225994	0.0002362037	-6.879464e-05	0.0005374016	9.691456e-05	-0.00030440776	0.0002914396	-0.0005549158	2.11438e-05	-0.00013853963	0.00032024205	-0.00027950297	-0.00028188975	-2.2723869e-05	-0.00052271056	0.00014611731	-7.225838e-05	8.350371e-05	-3.2974665e-05	0.0003717669	0.0005253462	9.088733e-05	-0.0002324258	3.486618e-05	-0.0003421566	-0.00022174088	-0.00019669719	-0.0001556721	-2.6131625e-05	-0.00034863906	-6.943296e-05	-0.000549234	-0.00031006258	-0.00016175602	9.77002e-05	-0.00011207608	3.47312e-05	-0.00024084379	0.00013225556	-8.6131186e-05	-0.00015733087	9.9027e-07	0.00023979205	0.00014021013	0.00015836324	-0.00021675351	-4.8832415e-05	-6.506521e-05	0.00011506985	-0.00016778451	-4.093689e-05	0.00016573234	3.133988e-05	-0.000101398124	-7.9849364e-05	-0.00018192556	-9.747256e-05	5.2848296e-05	-0.00026962053	0.0003214665	-0.00029030003	-0.00023481564	3.56142e-05	-0.0005402188	0.0001348679	-0.00034542326	-0.00044291126	-4.1821226e-05	-0.0006532827	8.817972e-05	8.75873e-06	0.000110853616	-0.0001750615	0.00017500548	0.00020575548	0.00032261715	-0.00020304351	-0.0003777182	0.00014684872	0.00021196093	-0.0005084576	-0.00021332559	-0.0003812043	-0.00018884557	-0.0002636393	-0.00019724546	-4.030098e-05	0.0002148035	-0.00016931875	-7.2350325e-05	-0.0003261749	8.744421e-05	-4.8464764e-05	-8.310747e-05	3.4599634e-05	0.0001522781	-0.00021858426	0.00022613803	0.00017905682	0.00034916497	6.164785e-05	-0.0003630368	-0.0005899445	-9.392204e-05	-4.949347e-05	-0.00037911508	-7.359256e-05	0.00012886556	0.00020066973	-0.0002333598	2.4134672e-05	0.00033433057	0.00011610711	-3.1504605e-06	-0.00044500586	3.3173976e-05	-0.00054672227	-0.00018127375	-0.00035591275	0.0002854157	0.00037523848	7.3719907e-06	-2.733687e-05	3.2105247e-05	-7.745242e-06	0.00038661758	0.00010435696	-0.00046228032	0.00041344538	0.00045612585	8.010619e-05	-0.00028061093	-7.474755e-05	0.00033101937	0.00023804785	0.00022041683	-0.00016662701	0.00010336497	-0.00018539363	-0.00030384577	-4.0674495e-06	-0.00049172057	0.0002223921	-3.3219803e-05	0.00050473044	-3.2887776e-05	-1.7140785e-05	0.00085999956	-0.00013145221	0.00026812076	-0.00029601157	0.00036962156	0.0003666714	-0.00010618389	0.00040996683	0.00026904815	-0.00042698652	0.00019186105	-4.4524117e-05	0.0001266772	-0.00045227926	5.1728955e-05	-0.00059281226	-0.00029058513	-0.00034666026	-2.97092e-05	-9.1047106e-05	0.00020260423	0.00059246115	6.9973736e-05	0.00014963052	-0.00021934569	-4.988257e-07	1.1412357e-05	0.00032806405	9.3249866e-05	-0.0006773351	-6.140681e-05	1.5994648e-05	-0.0002570598	-0.00018058013	-0.00041398653	0.0003895154
Von Mises–Fisher distribution_8	-0.00019040715	-0.0008465174	-0.0007141349	-6.0851067e-05	0.0011707612	5.2374293e-05	-8.672841e-05	0.0007344118	0.00040483847	0.0007425487	0.00023176968	-4.039753e-05	0.00057645276	0.0003835259	-0.00016781027	0.000376774	0.00044343944	-0.0004369666	-0.0003790496	-0.00025138853	0.0005983085	0.0004746207	0.00048691963	-0.0007306724	-0.00035819336	-0.00044076273	0.00016655607	0.00015556384	0.00017489068	-0.00060911104	1.3321905e-05	0.0010234575	-0.00022644675	0.00047693012	-0.00041347643	0.00033586202	0.0011357606	-5.3151016e-05	-0.00026774034	-0.0005710431	0.00028070167	0.00022310295	-0.00014041306	0.00015376414	0.0009941057	-0.0002499501	-0.00070546183	0.00028752076	0.00057137705	0.00047791423	2.2640888e-06	-0.0005809861	-0.0002587079	-0.0005416002	-0.0009941243	-0.00052089186	-0.00026740914	0.00042154596	-1.0291231e-05	-7.1071176e-05	0.00047938293	-0.00024281035	0.000841554	-0.0006401811	-0.00018733183	0.00046567703	-0.000373588	0.00079827	-6.1219725e-05	4.2756088e-05	-0.00031968055	-4.1584135e-06	0.0002136433	0.00013650616	0.00011177079	9.066661e-05	0.00032742508	0.00032034412	-0.00023125269	-3.412536e-05	0.00039653963	0.00047098368	0.00074473623	0.00041975337	0.00079794554	-0.00011921396	0.000101669066	0.00024915396	0.00014390808	-8.2332845e-05	-0.00043956673	0.00060590496	0.00017197811	-0.00036512504	2.341319e-05	0.00047184897	-3.5695295e-05	-9.8328535e-05	9.057527e-05	0.0009580052	0.00026578575	-0.0002389141	-0.00034906704	-0.0006850311	0.00028640582	-0.00034752325	-0.00027243485	-0.000459895	0.00041702995	3.6618338e-05	0.00035493425	-0.00030334175	0.000285135	0.0002975971	0.0001301034	0.00043217826	0.00072426256	0.0005340462	-0.00041124603	0.00013087523	0.00023814372	0.0010986237	0.00049461547	0.00038209578	-0.0005778662	-0.00055049086	-0.00053999235	-8.220173e-05	-8.452599e-05	-0.00010615879	-0.00016725477	-0.00047591317	0.00058899354	0.00015295611	-0.00026832506	0.00037841318	-0.00015859044	0.0009740405	-4.6967758e-05	-0.0003375326	0.00020939627	-0.00020349858	-0.00035058966	0.00035748008	-3.409599e-05	0.00034748064	-0.0003915259	-0.00020469174	-8.399706e-05	-0.00075846055	-0.00019859527	-0.0004412623	-0.00021831735	0.0005706104	-0.00047869334	0.00041576973	5.467573e-05	-0.0006211222	-0.00019932813	4.7916714e-05	0.0007842123	-0.00014555998	0.00024921662	-0.00023236671	-0.0004463647	0.0005779622	-0.0010463423	-0.00015906576	0.00040902296	2.4134351e-06	-0.00045304664	-0.00043916368	-0.00083171844	-0.0005649361	-0.00100032	-0.00018842457	0.00031391994	0.00022730253	-0.00063916756	0.00086801057	-0.00082979596	0.0005474101	-0.0003687354	-0.0012129585	0.0005813178	-0.00075488596	0.00025256607	0.00022897159	4.827843e-05	0.00032861918	0.00027941135	-0.0002989823	0.0002986074	-3.2325202e-05	-0.0006545726	0.0007463462	0.0005183625	-4.4195942e-05	-0.00018303195	-0.00048729207	-0.00076419505	-0.00087618764	-0.00051275175	-0.00057752884	0.00014069524	-0.00029515766	-0.00057065574	-0.0010375155	3.0270792e-05	-0.00028660282	0.00067748735	-0.00025171408	9.519733e-05	-0.00033343013	0.00057081244	0.0006915274	0.00028239717	0.00037261334	-0.00095587014	-0.00016963875	-2.501483e-05	0.0004645853	-0.00027648793	0.00010131195	-0.0008200585	0.00081436295	-7.8676865e-05	-0.00060347695	0.00027029138	0.00034752424	-0.00030819757	-0.0005922932	-8.563086e-05	-0.00045804222	-0.00055492204	-0.0005139665	0.0007723342	0.0007832501	0.0002176434	-0.00022996671	-0.00010991095	-0.00035672117	0.000827913	0.00028774695	7.1018294e-06	0.0005107188	0.0008179374	0.00050494785	-0.00028788875	-0.00023893976	-6.129104e-05	-0.0002928373	3.9791583e-05	-0.0006027168	0.00046586106	-2.1832806e-05	-0.00011795221	0.00024123881	4.4798668e-05	-2.8027622e-05	3.7440332e-06	0.0005231694	0.00031236224	-0.00045210167	0.0007218324	0.00012606962	0.00063814706	-0.0005053704	0.00036481733	0.0011594993	0.00034668384	-0.00026151998	0.0006094151	-0.00048271025	0.00019649358	-0.00047134445	-0.000262504	-0.00017474631	1.5214959e-05	-0.00054250646	-0.00026203622	-0.00027737717	-0.00033756372	0.0003445866	0.0004914795	0.000590761	-0.00077975745	0.00052598113	0.00027718698	-0.00017797855	0.00014238304	0.00061842205	-0.00054091075	-0.0006277004	-0.00022065785	0.000584443	-0.0006903017	0.0005315625	0.00012818741	0.0005097712
Von Mises–Fisher distribution_9	-0.0015153069	-0.0011840375	-0.00090136006	-0.00040969078	0.0011595831	0.00067265274	0.0015002122	0.0009353865	-0.0014848608	0.0007674676	-0.0013958724	-0.0008407907	0.00077848043	0.00073086144	-0.00014193534	-0.000980385	0.0010524385	0.0010670114	-0.0005553071	7.9484664e-05	0.0012512917	0.0013563253	0.0012750662	-0.0016358297	0.0005733314	-0.0007786215	0.000862077	-0.0002686313	0.00041437923	-0.00057971914	0.00022888838	0.000899897	-0.001150731	0.0010801964	-0.0016246387	0.00083271187	0.0011344211	0.0011311322	-0.0010031672	0.0009197074	0.00095547776	0.0011979876	0.0015218606	0.00059985986	0.001319859	0.0011938874	-0.0006977882	0.0010178244	0.0013049027	0.00090327946	-0.0015793577	0.00040211627	0.00087634724	-0.00059046963	-0.0012372334	-0.00017832368	0.0011108797	-0.001224007	0.0006629108	0.00069713057	-0.00042823615	-0.0007941166	0.0007132531	-0.0011977209	0.0004047639	0.001015846	-0.0012026303	-0.0009631991	-0.0011754684	0.0015351619	-0.0004810454	0.0014120843	3.3335204e-05	0.0014069434	0.00084225164	3.7070124e-05	-0.00074933167	-0.001227369	-0.0015623772	-0.0004906234	0.0015300702	0.00037508615	-0.0002683236	0.0014812979	0.0013878262	-0.0006070785	-0.0012482572	-5.729841e-05	-0.00049547665	0.0012325848	0.0010265058	2.0609079e-05	-0.0006733777	-4.340871e-05	-0.00025096096	0.0011211241	-0.0010920753	-0.0013832861	-0.00011304255	-0.0003838801	1.9832092e-05	0.0003521687	-0.00024627204	-0.00057272887	-0.000389855	-2.6175392e-05	-0.0006701803	-8.82824e-05	0.0014326066	-0.00026805364	0.0010446386	-0.000351456	-0.0012911471	0.00047310244	-0.0005374974	-0.00048380622	-0.00066133146	0.0013353082	-0.0014618544	0.0011708625	-0.0007995835	0.0011939523	0.0014243262	-0.00087603554	-0.00079199567	-0.0015580651	-0.0008082389	-0.0011809701	0.0014141954	-0.0009337575	0.0012874474	3.224891e-05	0.0015005559	0.0010535584	0.0007162324	-5.6554047e-05	-0.0013214024	0.0013539311	-0.0007821304	-0.00060162623	0.0014492137	-0.0014380174	-0.00092507	0.0011637249	0.0015531504	0.0011783409	0.00073809153	-0.0006194382	0.0006931511	0.00014741412	0.00043233763	-0.0015812044	0.0004278676	-0.0005548427	-0.0011850229	0.0008150252	0.00024221538	-0.0014182997	-0.0011340182	0.001093369	-0.00022166851	0.00017068141	0.00085524475	0.0013887081	-0.0014197251	0.0006683295	-0.0014911767	-0.0009442123	0.00037112494	0.0003534829	0.00090413983	-0.0010928817	-0.0014069872	0.0001470313	-0.0015649833	0.0005220116	9.482185e-05	0.00026731013	-0.0012120893	0.0015617353	-0.00088834297	0.0010721509	-7.150328e-05	-0.0013088121	0.00077807304	-0.00035856027	-0.000353332	-9.036049e-05	0.00025937962	0.0015326006	0.0009797106	-0.0010162075	-0.00064662035	-0.00047270212	-0.00012450985	0.0011676485	0.0013598719	-0.00023714332	0.00016110193	0.0009014699	-0.001602711	-0.0009016589	-0.00011141889	-0.0014298293	0.0015184497	0.00042607673	0.00019093063	-0.0010603702	0.0006093798	-0.0009763368	0.0005787957	0.0013399235	0.0010343527	-0.00093711336	0.00094175723	0.00050572364	0.0009451971	0.0010179031	-0.00086537463	0.0010694178	-0.0007071102	0.0012945225	-0.00046906283	0.0001521515	-0.0014417977	0.0010844163	0.00041576225	-0.0014023059	0.0007206513	-0.001189077	0.0011030693	0.001055552	-0.0013118875	0.0016212146	-0.00017527895	0.0012834304	0.0014449244	0.0005108042	0.0010893557	-0.0007329011	0.0012455835	0.0002962335	0.00057811855	-0.0002811042	9.267068e-05	-0.00037974064	-0.00039011936	7.3448755e-05	-0.00023723544	0.0013874031	0.00044628652	-0.0002876049	0.00057995913	-0.0013679867	-0.0010384889	-0.00035265097	0.001083179	0.001548152	-0.00016958389	-0.0005323259	-0.0010617522	-0.00080398144	-0.00044137932	-0.0010304444	-0.000282465	0.0005212421	0.00074154814	-0.0002199938	-0.0007960446	0.0012297485	0.0007938706	-0.0006056872	-0.00067852304	0.00035379705	0.0014978609	-0.0015501857	-0.0012996088	0.0011112328	-0.0010003	0.0006089006	0.0009707364	-0.00023891767	-0.0012993437	0.0007680775	0.0012124564	-0.0016639195	-0.0014953205	0.001447695	0.0015736037	0.0012582582	0.00044614557	0.00017052669	-0.00030682774	0.0014664122	0.000237331	0.0016602516	-0.0011695635	0.00063703296	0.0010747744	-0.0012274092
Von Mises–Fisher distribution_10	0.00021531385	0.0005520324	0.0004672782	0.00015452596	0.0004650186	9.446023e-05	0.00015943545	0.00026434174	0.0006303988	-0.0002692784	-0.00033970797	-0.00027875658	-0.0002697735	0.0002828512	0.0006099323	9.758424e-05	0.00061288243	0.00015767348	-0.0002127217	0.0007866379	-0.00049512275	-0.00026338783	-0.00044288568	0.00019460877	-4.8512902e-05	-0.00018755948	-0.00035082884	0.0007169978	0.00072619476	-0.00016135281	-0.00031076468	-0.00048076722	-0.00047405637	-0.00057206553	-0.00019781954	0.000711558	-0.0008748506	0.00053103914	-0.00014878403	0.0008364011	-0.00035617396	0.00067752384	0.00044304298	-0.00079881214	-6.6418434e-06	0.00012989032	-0.000444108	-0.0002752851	0.00030283534	0.0003444332	0.00037720197	0.0010578644	-0.0011230834	0.0011689899	0.00076172454	0.000684438	-0.00027207876	-0.00056289387	0.00044434532	-0.0007199075	0.0007464004	-0.00011720572	7.480861e-05	0.00044970878	-0.00064629037	-5.2522635e-05	-0.0004924631	-0.0003296428	0.0002856491	0.00030074237	0.0011026027	-0.0003006331	-0.0004697959	-0.00016726732	0.00045382776	0.0003939217	-0.0006026533	-0.00095729	0.00049566367	-0.00026728623	-0.00054009084	0.00057020545	0.00024456973	0.0005592911	-0.0002975432	-0.00020028026	0.00017534506	6.688976e-05	5.1640807e-05	-0.00042332386	0.0006452141	0.0004724966	0.00037546936	-0.00083600177	0.00027582535	-0.00055963185	0.00021104723	-5.5396657e-05	0.0007161453	-0.00019744206	0.00045226017	0.000777126	0.00089488	-0.00035437665	-0.0004078291	-0.0005733657	-1.7782013e-05	0.00022444404	0.00048709405	-0.00019419093	-8.1233935e-05	0.00046082868	-0.00048351302	0.0006092718	-0.0006099782	-8.295934e-05	-0.00044916468	0.0010890831	0.00072518206	-0.00011098246	0.0013838727	-0.00066955155	0.00055804005	0.0009486444	-3.3616282e-06	-5.6436015e-06	0.0009092032	-0.00064724573	-0.00027037112	-0.00033356552	0.0003289509	-0.00035051373	0.0011359482	0.00059905654	-3.92918e-05	0.00039594024	-6.988689e-05	-0.00044825624	-0.0005278183	0.00015641836	0.00015777834	-0.00055784575	-4.1962834e-05	0.00086490577	-0.00026126287	0.00022087649	-0.00076242496	-0.0004267584	-0.00044693405	-0.00022273655	-0.00036378755	0.0007984328	-0.00027687853	-5.328139e-05	-0.00052229007	0.0007267946	-0.00063703017	0.00026684612	-9.0068985e-05	0.0010797064	-0.0004985092	0.00046254604	-0.00023436162	-0.001073449	-0.00077284034	-0.00041862144	0.0007903603	-0.0008261373	-0.0006102858	-0.00010172697	9.18404e-05	0.0005581729	-2.652107e-05	0.00022519498	0.0009508386	-0.00057310826	0.0010695005	-0.0006683399	-0.0002851006	-0.00055768836	-0.00020401139	0.00048417525	-0.00031038758	0.00017985294	-0.00018330039	-0.00035285507	-0.0008655431	0.00075272104	0.00025928562	-0.00057800446	-0.00032523437	0.001088174	-0.0012574671	0.0005290517	0.00031248078	-0.0003118069	0.0005857865	-0.0013324395	5.1864947e-05	0.00019377151	-0.0008888781	-0.0003025746	-0.00057492993	-6.9953734e-05	0.00027907945	-6.170431e-05	0.0005241769	-0.00014962387	-0.00018523261	-6.141238e-05	0.00042191808	0.00032496045	1.0103026e-05	-0.00079847575	0.00083696883	-0.00011004697	-8.493805e-05	0.00023683808	-0.00089890044	-0.00018186437	0.0008538353	0.00017883726	0.00047121532	0.00034821127	0.00042161974	-6.514254e-05	0.00095237535	6.452656e-05	0.00037149966	5.282865e-05	-9.945033e-05	0.00053926656	-3.81416e-05	-0.0005654618	-0.00020647801	-0.00045418506	0.00059704174	-0.0005064153	0.00060210313	-0.00032292644	-0.0001286125	0.0007327878	-0.0005194158	0.00064106024	-0.0010140765	2.0617716e-05	-0.00035513184	-0.00018562435	-0.00014294883	-5.3439522e-05	-0.000103101986	0.000700376	-0.0006961431	-0.00015819159	0.00034110624	0.00041309965	0.00028561038	-0.0009627274	-0.0005407888	-0.00023960159	-1.527107e-05	-0.00024245858	-0.00019054506	0.0006629739	-0.0007772063	0.0003195542	-0.0010290215	0.00081388635	-5.8113965e-05	0.00027629398	0.00039991806	0.00033555576	9.244694e-05	-0.00036550942	0.0005810002	0.0004331197	0.0005064565	-0.0006316125	0.00042063903	0.00035871842	0.0013351497	-0.00025394725	-0.00033009597	-0.00017961055	0.00015347353	0.00036380274	0.0010182443	3.2937813e-05	0.0003984555	0.0006287745	-0.00019194542	0.000427498	0.0004878906	-0.00087878265	-0.00060085364	-0.0005571156	-0.0010452383	-0.000887633	-0.00011120434	-0.00011333168
Von Mises–Fisher distribution_11	-6.881884e-05	-7.007263e-05	-0.00024728253	-0.00043019513	0.00045900306	-0.00025030962	-0.0003147052	0.0005611607	2.3050052e-05	0.00025026352	0.00026976012	0.00018099304	0.00043260888	-0.00013500881	0.0004056976	0.00044387204	0.00063678256	-0.0006411844	1.4306467e-05	-0.00034086438	0.000103673636	0.00015221139	0.00039254248	0.0001168375	-9.11286e-05	-9.089915e-05	-4.6690868e-05	-8.798019e-05	0.00018060864	-0.00018500596	-0.00033948928	0.00036289255	-0.0001791343	0.00013745585	0.00038324078	8.9022484e-05	0.00012405602	-0.00029158956	-8.743225e-05	-0.00018075574	-3.9839713e-05	-0.00031840024	-0.00024793777	-9.3774484e-05	0.00023982691	-0.00014823076	-0.00030271913	-0.00037050634	-9.603626e-05	-4.3079413e-05	0.0001496523	-0.0005672435	-0.0004030422	-0.00039192694	-0.00021407439	-4.6101442e-05	-0.0004756817	0.00068532006	-0.00031874326	-4.8722668e-05	0.00051052653	0.00012607103	0.0001973387	-0.00017185882	-4.5971912e-05	0.00015765634	0.00037632344	0.0008301208	0.00038098288	-0.00043159546	0.00024306287	-0.00045039	0.00044482082	-0.00018820743	-0.00023571485	9.301049e-05	0.00063373666	0.00013118632	-0.00010802587	-3.5264937e-05	-7.745909e-05	0.000117660464	0.0005774527	0.00010772721	0.0003367334	-0.00015048146	0.00046562115	-0.00020042721	0.00013180009	-8.999201e-05	-0.00059538125	0.0006483062	0.00015714428	0.00018792246	-0.0001631421	0.00029941092	-7.157773e-05	5.993416e-06	0.00018445891	0.00040526045	0.00025357326	-0.000122028905	0.00011875824	-0.00054175983	0.00034245246	-8.1909406e-05	8.1846425e-05	-0.0005346442	-0.00025818284	-0.00020742837	0.00017377938	-0.00032226733	0.00029652953	0.00015100303	6.244635e-05	0.00022054881	0.00035795735	0.00034774607	0.00029910993	1.291385e-05	0.00046217957	0.0002533749	-0.00034361167	0.00025957826	-0.00048012767	-0.0002965496	-0.00019520662	0.0003431321	-0.0002922082	-0.00030003846	9.1595604e-05	-0.00041485034	-8.601293e-05	1.5810554e-05	-0.00034803734	0.0002666743	0.00035535128	0.00056352944	-5.220936e-06	-0.0002543642	-7.160757e-05	-0.00020311726	6.6604384e-06	-0.00015264482	-0.00023423931	6.0183407e-05	-0.0001691152	0.0001224714	-0.00065538724	-0.0004813424	-0.00041566978	-2.29427e-05	-0.00033620992	0.0001553307	-0.00040084953	-0.00015619783	0.00010447958	-0.0002854083	4.9946557e-05	0.00025185818	0.0002552384	0.00034187504	-0.00043154147	-7.742365e-05	2.7171767e-05	2.7065778e-05	-0.00010087896	-1.1814945e-05	-6.506399e-06	3.0137764e-05	-0.00015582779	-0.00023267709	-0.0003425328	-4.2942997e-05	-0.00020685907	-0.00016960275	0.00023586972	-0.00017675525	-0.0005264475	7.1365146e-05	-0.0004961915	-7.655717e-05	-0.00031273192	-0.0005476724	0.00028516244	-0.00046306557	8.143834e-05	-8.551232e-05	-0.00027316544	-0.00014183286	0.00040126234	0.00015590701	0.00026287642	-0.00024419182	-0.00028657177	0.00024707138	5.119746e-05	-0.00030029195	-0.0003121608	-0.00027909197	-0.00033528145	-0.00035515567	-0.00017883292	0.00011605129	0.00028118296	-0.0005052495	-0.00020207775	-0.0004998525	-0.000117150186	1.62716e-05	-7.809846e-05	-3.0522126e-05	-5.500139e-05	-0.00025257486	0.00022965769	0.00039038618	5.7681853e-05	0.00037165757	-0.00029362572	-0.00046311363	-0.0002640844	0.00015016981	-0.0003576715	-0.00029394455	2.9348164e-05	0.00030538192	-0.00010552597	-0.00026043938	0.00030209174	0.0002673321	-0.0001091597	-0.00047120437	0.00023202937	-0.0005184122	-9.926683e-05	-0.00040781332	0.00021882362	0.0003519511	2.7396667e-05	-0.00020351942	-1.8428522e-05	-0.00011178546	0.00034748486	0.00019440042	-0.0003163869	0.0001733909	0.00064163806	6.361558e-05	-0.00041191073	-0.00015918673	0.00019518395	0.00023241823	0.00029914003	-0.00018508312	0.00027732222	1.566803e-05	-0.00011412785	-0.00020586989	-0.00038084647	0.00031266653	-6.293767e-05	0.0005632516	0.0001758396	-2.602558e-06	0.0009346541	-0.00032296154	0.00038673473	-0.0005358277	0.0003231262	0.00042384563	-8.646896e-05	0.0004418913	0.00035985778	-0.00060317747	8.844808e-05	-0.00023135617	0.00017624053	-0.00039370047	-7.709882e-05	-0.00047827992	-0.00048573312	-0.0006661872	7.8760815e-05	-4.8868085e-05	0.00037191922	0.00062764395	-0.00031786284	2.174388e-05	-0.0002449264	-0.00025225536	0.00013720551	0.0001361328	-3.698582e-05	-0.000778163	-0.00023900694	-0.00010432331	-0.0003567011	-0.0001760368	-0.000531458	0.0003745693
Von Mises–Fisher distribution_12	0.0010249751	-0.0011300702	-0.00076437433	-0.0013898493	0.00085390435	-0.00041743324	0.00083573983	0.0001482663	0.00026951454	-7.434263e-06	0.00026901576	-0.00014752825	0.000485716	-0.00057993113	-0.0009198597	-0.0005862248	-9.154833e-05	0.0009842254	-0.00014012204	0.00027004318	-0.0005456542	-2.3481067e-05	-0.00016859295	0.0006532129	0.0002144813	9.446334e-05	-0.00045672889	0.0007290337	-0.00053430494	-0.00039299866	0.0011321871	0.000115687486	0.00070387684	0.00022565947	-1.411658e-05	-3.9271672e-05	-0.00027648537	-0.00024372655	0.00041377827	0.00056921045	-0.0006835764	0.00056682614	-0.0007195087	-0.0008705347	-0.0006302762	0.00025467144	-2.3484929e-05	-0.00018369728	0.0006886476	0.00037871266	0.0008064617	-0.00032055005	-0.0006838977	-1.6453589e-05	-0.00060526753	-0.00081228325	-0.0009909723	-0.00038926172	-0.00023423345	0.0007316433	-0.0006253586	-3.542559e-05	-0.00044229045	-4.1761126e-05	0.00019647327	-0.00032337068	0.00044786636	-0.0011212671	-3.3970962e-05	-0.00019476197	0.0003230831	-0.0005894662	0.00015296925	0.00015079619	6.333974e-05	-0.00014082262	0.00023121014	-0.00014215423	-0.0006625911	-0.00017037726	0.0003963808	-0.00045037456	0.0009046038	-0.0014642881	-0.00013810303	0.00034327782	0.0010280107	-0.00044209778	8.4276624e-05	0.00039918534	-0.000438304	-0.00025198926	-0.0007535598	0.000908868	0.00012475667	0.00013639849	-0.0009522024	-0.00019267481	-0.00052491785	5.8999693e-05	0.0010190338	-0.0004906258	-0.0010120102	0.00042011132	-0.00039377352	0.00029802704	-0.00073222397	8.45237e-05	0.00020467308	0.0002442902	-0.00016323636	0.0006330076	0.000627301	0.00056666473	-2.2297027e-05	-0.00038955512	5.203213e-05	-0.00050465076	0.00046110878	4.0237675e-05	0.00058473524	-0.00021569035	-0.0014838511	-0.000105116516	-0.0002411664	-0.00011230734	-0.0003712857	0.00042975342	0.00031389252	0.0002964219	6.707121e-05	0.0009831138	-0.00033312012	0.00090505974	0.00068066915	0.00068708946	0.00029496264	6.264322e-05	0.0011051398	0.0002299547	-0.0005091704	0.00018997025	-0.00012639462	0.00028553154	0.0003502704	-0.00023231634	0.0004203977	-5.8664053e-05	-5.0452265e-05	-0.0006874034	-0.0008118202	0.0011030808	-0.00086475845	-0.00084197987	-0.000193222	-2.7969456e-05	-0.0008805634	0.000622141	-0.000695008	-0.00038035426	-0.0001586547	0.0005803622	-5.054346e-05	0.00024926616	0.0002027581	0.00055549556	-0.000107480875	-0.00044095586	-2.3130095e-05	0.00023721917	0.0013331842	0.00015631522	0.00016065784	0.0009435781	5.0625928e-05	0.0015452538	0.00048282967	0.00074944255	-0.0008760461	6.910631e-05	1.8735134e-05	0.001121955	-0.000116451294	0.00033883922	0.00017064977	0.00045139084	0.00031488886	-0.00029072782	0.00027761614	-0.00019687712	-0.00010190592	1.9862977e-05	-0.0003331699	5.7865866e-05	-0.00023491518	-0.00058268453	-0.00088076136	-0.0003878742	0.00013114912	-0.00013283896	0.000826173	-0.00023774336	-0.0006685999	0.00086404197	-0.00062457245	-0.00020981794	-0.0004446026	-0.00080483087	-0.00024930527	-6.8241534e-05	0.00034305654	-0.00065107323	-0.0002498492	-0.00042538717	0.00024248297	0.00047299	0.00045678372	-5.488251e-05	0.0006408102	-0.0009965254	-0.0008264226	-0.00040971884	-0.0006689066	0.0007370206	-0.000982364	-0.000527812	-0.0002203319	-0.0001874095	0.00041877475	0.00015351397	0.0012151018	-0.0005698505	0.00013437337	-0.00019057262	-0.0004163786	0.00039299697	0.0010178689	0.0004083352	-0.000285049	-5.183202e-05	-0.000914002	-0.00014215586	0.0005588829	-0.00030528673	0.0003652803	0.00020741652	0.000112113485	-0.00010604039	-0.0006746081	0.0013575129	-0.00010065901	0.00032576456	0.0005745086	2.4040914e-05	-0.00042979175	0.00027010593	-0.0008883626	-0.0011414065	-0.0013634166	0.000986817	-0.0010959692	0.00025968454	-0.001023737	0.00026771196	-0.000903977	-0.00044101724	-0.00026458604	0.00038112383	5.4603835e-05	0.0007466483	-0.00019789592	0.00045269294	-0.0006004884	0.0004291979	-0.00015712153	0.0005655646	-0.0009859365	-2.4508181e-05	0.00043787967	-0.00013167986	0.0001659798	0.00075208815	0.00010883063	-0.00046379966	0.00030804583	0.0006154006	-0.00077618886	-0.0003282392	-0.0003990451	0.0003071404	0.00033151626	0.00046696464	-8.635622e-05	0.00038111405	-0.00036653	0.00058016344	-0.00046010202	-0.0009438489	0.00013472683	9.807305e-05
Von Mises–Fisher distribution_13	0.000399302	-5.62585e-05	-0.00055152253	-0.0009752608	0.00010884922	-0.0005791324	0.00015915393	0.0011101847	-0.00022769593	-0.00045670438	0.00035379446	-4.601176e-05	0.00037397826	-0.0008263926	-0.00057984685	-0.00036198614	0.0004425888	0.00012184769	-0.00052427064	0.00041282937	-0.0008398591	6.625035e-05	0.0003721819	0.0005084718	0.00089396845	0.00023453427	-9.457063e-05	0.00048619288	-0.00017845434	7.328015e-05	0.0002445509	0.0006790895	-0.00019023009	-0.00048631034	5.574829e-05	0.00041148826	-0.00045016958	-0.0005906984	5.108155e-06	0.000529711	-0.00031284388	0.00016547943	-0.0007779582	-0.0008938105	-0.0005713172	0.00054026564	-0.0002399523	-0.00025448913	-0.0001916464	0.00018543053	0.00047555976	-0.0002233927	-0.00022268055	-0.0001312906	9.7396165e-05	-0.00016517048	-0.0006497817	0.00025929234	-0.00043327073	0.00079354504	-0.00018373346	-0.00024688247	-0.00019235552	0.0003500528	-2.7211927e-05	-0.00094151596	0.0012038489	-0.000320419	0.00027655964	-0.00015840847	0.0007932866	-0.00021600556	0.00024427363	-4.3703167e-05	-0.0003724414	-0.00085619994	0.00051801425	-4.08331e-05	-0.0005914244	0.00013761257	0.00084538566	-0.0010284595	0.0005202661	-0.0011188271	0.00033647506	6.0286115e-05	0.00093480415	-0.00048386081	0.000856113	0.00018373998	-0.0009857977	0.00041962994	-0.00027597675	0.0010110653	0.00026619702	8.224892e-05	-0.00015809141	-0.00021898297	-5.650507e-05	-0.0001041934	0.0010148287	-0.0008613358	-0.0007725305	3.895901e-05	-9.379335e-05	0.00057259534	-0.0009525173	0.0007131602	-0.00051686337	-0.00037952876	-0.0007364421	0.0005791993	0.00030926007	0.000632873	0.00033159406	-0.00037891	9.876696e-05	-7.284607e-05	0.00011593511	0.00053149596	0.00052438834	-0.0004763756	-0.0014724805	-0.0003058146	-0.00087394525	-0.00056685664	0.00035781076	0.00039548217	0.00020043731	-0.00014331876	0.00059385673	-2.2469554e-05	-0.0012000185	0.00097201514	-0.0002748181	-0.0003097277	0.00038509944	0.00025518137	0.00037250706	-0.00075291446	-0.00034547076	-0.00040660458	0.00014428403	-0.00031742008	0.0004087969	-6.689867e-05	4.1636275e-05	0.00026663564	-0.0005924685	-0.0010005278	-0.0005044508	0.0006254093	-0.00086398283	-0.00021580148	2.728717e-05	-7.391812e-05	-0.00010964096	0.0004845782	-0.00092838105	8.721215e-05	-0.00053054164	0.00026131075	-0.000449413	0.00058543816	0.00017872614	0.00078246463	-0.00047509978	-2.4372217e-05	-0.00071759947	0.0004500586	0.00081414846	-0.0002868992	0.00015725961	0.0011412436	7.9548736e-05	0.0012841973	0.00024133651	8.994446e-05	-0.0006140609	9.9792924e-05	8.992705e-06	0.00018906571	0.00018991173	-0.00034921442	0.00030694573	0.0009251167	0.0001242435	-0.0012697309	0.0003069177	-0.00016604848	0.00026581335	0.00014415527	2.3775288e-05	-0.0009807056	-0.00032551595	0.00018079636	-0.0009300432	1.9478393e-05	0.0002601519	0.00036315338	0.0007356505	-9.9886865e-06	-0.00072590023	0.00059536815	-9.564838e-06	-0.00053421705	0.0003541012	-0.00061331614	0.0005584126	1.6797645e-05	-0.00030874836	-0.00055314123	-0.0003805129	-0.00066844147	8.476427e-05	0.0004569774	0.00031080013	-0.00016172389	0.0003829339	-0.0006464008	-0.00058270583	0.00016411346	-0.0005090372	-0.00021090078	-0.000591999	-0.00025100523	-0.0003389231	-0.00032822546	0.00020290566	-0.00049866346	0.0008117456	-0.0006949051	0.00046851757	0.00037714283	-0.00014859659	0.00067071157	0.00020595599	-0.00012098835	0.0005168079	-0.00019453016	-7.199948e-05	-7.689882e-05	0.0004721094	1.9362196e-06	0.00041195937	-0.00032711585	0.00028785862	-0.0004769717	-0.0006771448	0.0014006445	-0.00056963164	0.0010231071	0.00040752813	0.00028953227	1.7667538e-05	0.0007921295	-0.00056978123	-0.0011728604	-0.0010596082	0.0012095474	-0.0014170478	0.00051248167	2.5695519e-05	5.5664957e-05	-0.0005390288	-0.00032722202	-0.0007102073	-0.00016930315	0.00045373998	0.00028237666	-0.000433656	0.0012092701	-0.00033981234	0.0009363052	-0.0003784	0.0007305735	-0.00067672506	9.507864e-05	-0.00032593377	0.000298736	-0.0006897621	0.00035867534	0.0004349803	-0.00078921294	0.0002486381	0.0005591818	-0.0006469788	6.925509e-06	-0.00011289186	0.0004956614	-0.00054448866	-0.0001057259	0.00042948988	-0.0005205097	-0.00039466924	0.0004897418	9.382453e-05	-0.00094916223	-0.0007840195	0.00021741027
Von Mises–Fisher distribution_14	0.000399302	-5.62585e-05	-0.00055152253	-0.0009752608	0.00010884922	-0.0005791324	0.00015915393	0.0011101847	-0.00022769593	-0.00045670438	0.00035379446	-4.601176e-05	0.00037397826	-0.0008263926	-0.00057984685	-0.00036198614	0.0004425888	0.00012184769	-0.00052427064	0.00041282937	-0.0008398591	6.625035e-05	0.0003721819	0.0005084718	0.00089396845	0.00023453427	-9.457063e-05	0.00048619288	-0.00017845434	7.328015e-05	0.0002445509	0.0006790895	-0.00019023009	-0.00048631034	5.574829e-05	0.00041148826	-0.00045016958	-0.0005906984	5.108155e-06	0.000529711	-0.00031284388	0.00016547943	-0.0007779582	-0.0008938105	-0.0005713172	0.00054026564	-0.0002399523	-0.00025448913	-0.0001916464	0.00018543053	0.00047555976	-0.0002233927	-0.00022268055	-0.0001312906	9.7396165e-05	-0.00016517048	-0.0006497817	0.00025929234	-0.00043327073	0.00079354504	-0.00018373346	-0.00024688247	-0.00019235552	0.0003500528	-2.7211927e-05	-0.00094151596	0.0012038489	-0.000320419	0.00027655964	-0.00015840847	0.0007932866	-0.00021600556	0.00024427363	-4.3703167e-05	-0.0003724414	-0.00085619994	0.00051801425	-4.08331e-05	-0.0005914244	0.00013761257	0.00084538566	-0.0010284595	0.0005202661	-0.0011188271	0.00033647506	6.0286115e-05	0.00093480415	-0.00048386081	0.000856113	0.00018373998	-0.0009857977	0.00041962994	-0.00027597675	0.0010110653	0.00026619702	8.224892e-05	-0.00015809141	-0.00021898297	-5.650507e-05	-0.0001041934	0.0010148287	-0.0008613358	-0.0007725305	3.895901e-05	-9.379335e-05	0.00057259534	-0.0009525173	0.0007131602	-0.00051686337	-0.00037952876	-0.0007364421	0.0005791993	0.00030926007	0.000632873	0.00033159406	-0.00037891	9.876696e-05	-7.284607e-05	0.00011593511	0.00053149596	0.00052438834	-0.0004763756	-0.0014724805	-0.0003058146	-0.00087394525	-0.00056685664	0.00035781076	0.00039548217	0.00020043731	-0.00014331876	0.00059385673	-2.2469554e-05	-0.0012000185	0.00097201514	-0.0002748181	-0.0003097277	0.00038509944	0.00025518137	0.00037250706	-0.00075291446	-0.00034547076	-0.00040660458	0.00014428403	-0.00031742008	0.0004087969	-6.689867e-05	4.1636275e-05	0.00026663564	-0.0005924685	-0.0010005278	-0.0005044508	0.0006254093	-0.00086398283	-0.00021580148	2.728717e-05	-7.391812e-05	-0.00010964096	0.0004845782	-0.00092838105	8.721215e-05	-0.00053054164	0.00026131075	-0.000449413	0.00058543816	0.00017872614	0.00078246463	-0.00047509978	-2.4372217e-05	-0.00071759947	0.0004500586	0.00081414846	-0.0002868992	0.00015725961	0.0011412436	7.9548736e-05	0.0012841973	0.00024133651	8.994446e-05	-0.0006140609	9.9792924e-05	8.992705e-06	0.00018906571	0.00018991173	-0.00034921442	0.00030694573	0.0009251167	0.0001242435	-0.0012697309	0.0003069177	-0.00016604848	0.00026581335	0.00014415527	2.3775288e-05	-0.0009807056	-0.00032551595	0.00018079636	-0.0009300432	1.9478393e-05	0.0002601519	0.00036315338	0.0007356505	-9.9886865e-06	-0.00072590023	0.00059536815	-9.564838e-06	-0.00053421705	0.0003541012	-0.00061331614	0.0005584126	1.6797645e-05	-0.00030874836	-0.00055314123	-0.0003805129	-0.00066844147	8.476427e-05	0.0004569774	0.00031080013	-0.00016172389	0.0003829339	-0.0006464008	-0.00058270583	0.00016411346	-0.0005090372	-0.00021090078	-0.000591999	-0.00025100523	-0.0003389231	-0.00032822546	0.00020290566	-0.00049866346	0.0008117456	-0.0006949051	0.00046851757	0.00037714283	-0.00014859659	0.00067071157	0.00020595599	-0.00012098835	0.0005168079	-0.00019453016	-7.199948e-05	-7.689882e-05	0.0004721094	1.9362196e-06	0.00041195937	-0.00032711585	0.00028785862	-0.0004769717	-0.0006771448	0.0014006445	-0.00056963164	0.0010231071	0.00040752813	0.00028953227	1.7667538e-05	0.0007921295	-0.00056978123	-0.0011728604	-0.0010596082	0.0012095474	-0.0014170478	0.00051248167	2.5695519e-05	5.5664957e-05	-0.0005390288	-0.00032722202	-0.0007102073	-0.00016930315	0.00045373998	0.00028237666	-0.000433656	0.0012092701	-0.00033981234	0.0009363052	-0.0003784	0.0007305735	-0.00067672506	9.507864e-05	-0.00032593377	0.000298736	-0.0006897621	0.00035867534	0.0004349803	-0.00078921294	0.0002486381	0.0005591818	-0.0006469788	6.925509e-06	-0.00011289186	0.0004956614	-0.00054448866	-0.0001057259	0.00042948988	-0.0005205097	-0.00039466924	0.0004897418	9.382453e-05	-0.00094916223	-0.0007840195	0.00021741027
Von Mises–Fisher distribution_15	0.0010249751	-0.0011300702	-0.00076437433	-0.0013898493	0.00085390435	-0.00041743324	0.00083573983	0.0001482663	0.00026951454	-7.434263e-06	0.00026901576	-0.00014752825	0.000485716	-0.00057993113	-0.0009198597	-0.0005862248	-9.154833e-05	0.0009842254	-0.00014012204	0.00027004318	-0.0005456542	-2.3481067e-05	-0.00016859295	0.0006532129	0.0002144813	9.446334e-05	-0.00045672889	0.0007290337	-0.00053430494	-0.00039299866	0.0011321871	0.000115687486	0.00070387684	0.00022565947	-1.411658e-05	-3.9271672e-05	-0.00027648537	-0.00024372655	0.00041377827	0.00056921045	-0.0006835764	0.00056682614	-0.0007195087	-0.0008705347	-0.0006302762	0.00025467144	-2.3484929e-05	-0.00018369728	0.0006886476	0.00037871266	0.0008064617	-0.00032055005	-0.0006838977	-1.6453589e-05	-0.00060526753	-0.00081228325	-0.0009909723	-0.00038926172	-0.00023423345	0.0007316433	-0.0006253586	-3.542559e-05	-0.00044229045	-4.1761126e-05	0.00019647327	-0.00032337068	0.00044786636	-0.0011212671	-3.3970962e-05	-0.00019476197	0.0003230831	-0.0005894662	0.00015296925	0.00015079619	6.333974e-05	-0.00014082262	0.00023121014	-0.00014215423	-0.0006625911	-0.00017037726	0.0003963808	-0.00045037456	0.0009046038	-0.0014642881	-0.00013810303	0.00034327782	0.0010280107	-0.00044209778	8.4276624e-05	0.00039918534	-0.000438304	-0.00025198926	-0.0007535598	0.000908868	0.00012475667	0.00013639849	-0.0009522024	-0.00019267481	-0.00052491785	5.8999693e-05	0.0010190338	-0.0004906258	-0.0010120102	0.00042011132	-0.00039377352	0.00029802704	-0.00073222397	8.45237e-05	0.00020467308	0.0002442902	-0.00016323636	0.0006330076	0.000627301	0.00056666473	-2.2297027e-05	-0.00038955512	5.203213e-05	-0.00050465076	0.00046110878	4.0237675e-05	0.00058473524	-0.00021569035	-0.0014838511	-0.000105116516	-0.0002411664	-0.00011230734	-0.0003712857	0.00042975342	0.00031389252	0.0002964219	6.707121e-05	0.0009831138	-0.00033312012	0.00090505974	0.00068066915	0.00068708946	0.00029496264	6.264322e-05	0.0011051398	0.0002299547	-0.0005091704	0.00018997025	-0.00012639462	0.00028553154	0.0003502704	-0.00023231634	0.0004203977	-5.8664053e-05	-5.0452265e-05	-0.0006874034	-0.0008118202	0.0011030808	-0.00086475845	-0.00084197987	-0.000193222	-2.7969456e-05	-0.0008805634	0.000622141	-0.000695008	-0.00038035426	-0.0001586547	0.0005803622	-5.054346e-05	0.00024926616	0.0002027581	0.00055549556	-0.000107480875	-0.00044095586	-2.3130095e-05	0.00023721917	0.0013331842	0.00015631522	0.00016065784	0.0009435781	5.0625928e-05	0.0015452538	0.00048282967	0.00074944255	-0.0008760461	6.910631e-05	1.8735134e-05	0.001121955	-0.000116451294	0.00033883922	0.00017064977	0.00045139084	0.00031488886	-0.00029072782	0.00027761614	-0.00019687712	-0.00010190592	1.9862977e-05	-0.0003331699	5.7865866e-05	-0.00023491518	-0.00058268453	-0.00088076136	-0.0003878742	0.00013114912	-0.00013283896	0.000826173	-0.00023774336	-0.0006685999	0.00086404197	-0.00062457245	-0.00020981794	-0.0004446026	-0.00080483087	-0.00024930527	-6.8241534e-05	0.00034305654	-0.00065107323	-0.0002498492	-0.00042538717	0.00024248297	0.00047299	0.00045678372	-5.488251e-05	0.0006408102	-0.0009965254	-0.0008264226	-0.00040971884	-0.0006689066	0.0007370206	-0.000982364	-0.000527812	-0.0002203319	-0.0001874095	0.00041877475	0.00015351397	0.0012151018	-0.0005698505	0.00013437337	-0.00019057262	-0.0004163786	0.00039299697	0.0010178689	0.0004083352	-0.000285049	-5.183202e-05	-0.000914002	-0.00014215586	0.0005588829	-0.00030528673	0.0003652803	0.00020741652	0.000112113485	-0.00010604039	-0.0006746081	0.0013575129	-0.00010065901	0.00032576456	0.0005745086	2.4040914e-05	-0.00042979175	0.00027010593	-0.0008883626	-0.0011414065	-0.0013634166	0.000986817	-0.0010959692	0.00025968454	-0.001023737	0.00026771196	-0.000903977	-0.00044101724	-0.00026458604	0.00038112383	5.4603835e-05	0.0007466483	-0.00019789592	0.00045269294	-0.0006004884	0.0004291979	-0.00015712153	0.0005655646	-0.0009859365	-2.4508181e-05	0.00043787967	-0.00013167986	0.0001659798	0.00075208815	0.00010883063	-0.00046379966	0.00030804583	0.0006154006	-0.00077618886	-0.0003282392	-0.0003990451	0.0003071404	0.00033151626	0.00046696464	-8.635622e-05	0.00038111405	-0.00036653	0.00058016344	-0.00046010202	-0.0009438489	0.00013472683	9.807305e-05
Von Mises–Fisher distribution_16	0.0006822019	-0.00028860086	-0.00036054538	-0.0010022765	0.0006351754	-0.00025181848	0.00015085444	0.0008385818	-0.00014831845	-0.00055490265	0.00012215499	-1.33259455e-05	0.00036201594	-0.0010082162	-0.0009318347	-0.00022562072	0.00037484991	0.00037301803	-0.0007611364	9.737404e-05	-0.00046672835	-2.7947395e-05	0.00017131248	0.00017481459	1.3481546e-05	-6.0137078e-05	0.0004897992	0.0001284444	-0.00012810646	0.00012036126	-0.00012033547	0.0003194021	2.5623036e-05	-9.187259e-05	0.00034046234	0.0003661944	0.00028728708	-0.0002897804	8.0758145e-05	0.00039674327	-0.00015187474	-0.00022308179	-0.00046279124	-0.0007479229	-0.00066419924	0.000277965	-0.00012834968	3.3200417e-05	-0.00010043154	-0.00026664906	0.00033053532	7.792115e-05	-0.0003117613	-0.0006000578	0.00035220402	-0.00042004106	0.00014259681	0.00013650235	-0.00028855406	0.00081384147	-0.0005931771	5.1777915e-05	-0.00011918142	0.0005033774	0.00016385302	-0.0009244482	0.00084132934	-8.3916144e-05	0.00020987024	0.00043319174	-3.5803765e-05	-0.00015023933	4.7250145e-05	-0.000408321	0.00019455755	-0.000702665	0.0003312088	0.00015770846	-3.3963097e-05	-0.00027629113	0.00061255135	-0.0010107437	0.00023685892	-0.0010413085	-7.707086e-05	-0.00036414652	0.0010592215	-0.0002138116	0.00024449453	1.002574e-05	-0.0006670978	0.000104674094	-8.6091204e-05	0.0004682146	2.6145246e-05	4.6787154e-05	-0.00038097866	0.00017921561	-0.00030946452	-0.000416603	0.0003922577	-0.0005490706	-0.00035297143	0.0004861989	3.4031167e-05	0.00014617221	-0.00044421566	0.0004953189	-0.00070228253	-0.00014211498	-0.00036972048	0.0006607664	0.00027838853	0.00052240805	0.00021621297	-3.529447e-05	-4.088154e-05	-0.0006424535	-0.00016080926	0.0004877628	0.00030810747	0.00022406879	-0.00068081723	-0.00032203607	-0.0008097278	-0.0001570287	0.0002069909	0.00028328827	-0.00021196701	-0.0004723363	0.00013302387	7.906144e-05	-0.0010653266	0.00032725855	-0.00034306152	-6.863917e-05	0.00048672166	-9.9452154e-05	0.00037763122	-0.00038985055	-0.0006933172	-3.921487e-05	0.00048918434	0.00019411331	8.470796e-05	-9.006588e-06	-0.00028879353	-0.00013397394	-0.00018917615	-0.0003034061	4.9657072e-05	9.778982e-05	-0.00023873002	-0.00022763814	-0.0003933507	-0.00045788474	2.5480287e-05	0.0006930719	-0.00086405745	0.00020814184	-0.00052498846	6.032157e-05	-7.189319e-05	0.0005939449	0.0006656257	0.00013264122	-0.00035093998	-0.00019153878	-0.00040143696	-6.132e-05	0.0008868685	0.00020301831	-0.00016984672	0.00067214493	0.00021772149	0.0009617051	-0.00016707837	-0.00035484022	-0.00019707266	8.0797865e-05	0.00016172614	-0.00033724372	-0.00039115277	8.868624e-05	0.0007793425	0.0008119989	0.00017627262	-0.0004840352	8.140434e-06	-0.00048559136	-0.00040570335	0.00017710993	0.0002823659	-0.00043678022	-0.00033877813	0.000596163	-0.00054699596	0.00015196668	-7.600648e-05	9.55852e-05	0.000382594	0.0002305361	-0.0006180891	0.0002550446	-0.00010049646	-0.0005235859	-0.00019513695	-0.0006151644	0.0008086058	-0.00014894262	-0.0005001206	-0.00011576662	-7.3447474e-05	2.354011e-06	0.00048533763	0.00036625046	0.0005601125	0.00044501308	0.00024290677	-0.00020870089	-0.00023909593	0.00017419255	-0.0003884285	-0.00026994757	0.00019381603	-7.1229515e-05	-0.00034360128	-0.0005227226	-0.00036510263	-0.00059768226	0.0006490864	-0.0007723356	0.00032736253	0.00015675346	-0.000110169945	0.0001818013	9.150397e-05	2.4679559e-05	-9.226608e-05	0.00024172373	0.00027700904	4.835329e-05	-0.00035032094	-0.00037900027	-0.00013378543	-2.394165e-05	-0.00010221689	-0.00043264558	-0.00035315793	0.00051101984	-0.00017252743	0.00024233451	-7.146865e-05	-0.00037221733	0.00019340978	0.00022013746	-0.0002867221	-0.0009952195	-0.00047466374	0.00042254763	-0.0011707137	0.00079893385	-0.00043035028	-0.00033420295	-9.515441e-05	-0.00056862936	-0.0008244185	-0.00019324079	0.00064855715	0.0005872053	-0.00052613526	0.0005064424	-0.00028023095	0.00039337465	-0.0007812826	6.798307e-05	-0.00063008827	1.8387567e-06	0.00014968353	0.00021609585	-0.0005287078	5.8881727e-05	0.00014056971	-0.0009218797	0.00071639643	0.00023029154	-0.0005456815	0.0004940562	0.00010810331	-7.179215e-05	-0.00085447996	-5.9433973e-05	6.63591e-05	-2.25036e-05	-0.00015365105	1.0130845e-05	-0.000470931	-0.00087228435	-0.0002741792	0.00022420334
Von Mises–Fisher distribution_17	0.0005356382	-7.1302624e-05	3.5136413e-06	-0.0010640576	0.000605548	-5.695348e-05	0.0002039836	0.0006238172	-5.607695e-05	-0.0005637455	0.00065666053	5.9809805e-05	1.6884029e-05	-0.00081429596	-0.00065342867	-0.00027935914	0.00053252565	0.00042376123	-0.00046646845	0.00030615664	-0.00074034015	0.0003648052	0.0001437431	0.00014973493	0.00023034184	0.000115312636	4.8300066e-05	0.0003107796	-8.078595e-06	0.0005013241	0.0001994011	-2.6367468e-05	0.0002196169	-0.0004120587	0.00042901677	0.00063527824	-0.0003478317	-0.0003374755	-0.00030500925	0.00056945934	-0.00014571918	-7.282365e-05	4.6613045e-06	-0.0009113226	-0.00043525227	0.0002525563	-0.00028714276	8.204407e-05	-7.609184e-05	-0.0002530433	0.00074825797	-4.847474e-05	-0.00037040553	-8.884694e-05	0.00035429484	-0.00030616933	-0.00027559983	-0.00018626652	-0.0002736025	0.00041867644	-0.00032593188	-0.00026572673	0.00013692892	0.0005554188	-0.0002167847	-0.0007478523	0.001082069	-0.0005543203	0.00020134887	0.00018348393	0.00049114396	-0.00032345968	-0.00033477752	-0.0005466918	3.4995563e-05	-0.0004097331	0.00048274864	-0.00035162715	-0.00039830146	-0.00025923207	0.00062121334	-0.00081056403	0.00056183926	-0.00081129576	0.00010230753	-0.000429571	0.0009476494	-0.00029250875	0.00028040755	2.6362255e-05	-0.00018441437	-4.9157807e-05	0.00018887309	0.000713283	-0.00035478425	-2.36638e-05	0.00019475239	0.00016164022	-0.00021977528	-0.00050865894	0.0007385765	-0.00022570408	-0.00023729603	1.5784357e-05	-1.33680705e-05	0.00010443256	-0.0004999201	0.00032466726	-0.0004508953	-2.029381e-05	-0.0008556476	0.00083874754	-4.634334e-06	0.0005192715	0.00014697039	-0.0002471305	0.00011755375	-0.00018795472	0.000108488326	-3.574523e-05	0.00043273455	-0.000169149	-0.00055239804	-2.7249707e-05	-0.00086502207	-0.00037435902	-6.349478e-06	0.00033190104	9.849302e-05	-0.00029262836	0.00025182142	4.0096813e-05	-0.0005773766	0.0004190731	-0.00033675373	8.2914645e-05	0.00056854065	-0.00010890834	0.0002615637	-0.00046514353	-0.00079347973	-0.00023193052	0.00056067045	0.00022946247	0.0002461	-3.4454279e-06	-3.1493713e-05	1.976054e-05	-0.0006009439	-0.0006264457	-0.0003046799	0.00025648982	-0.00063556916	-0.00033968862	-0.0005046384	4.4441463e-06	0.00018381055	0.0004953714	-0.00063431717	0.00036177348	-0.0005827941	0.00026210063	-9.972488e-05	0.00047665215	0.00029923796	0.00027591668	8.3554114e-05	-0.00015996509	-0.00038189237	5.2995874e-05	0.0006560596	-0.00021515755	5.971727e-05	0.00046172022	0.00048571872	0.0007005206	9.672068e-05	-0.00036077507	-0.00014508796	-5.4202355e-05	-0.00010016139	0.00011069196	-0.00034080495	9.3330396e-05	0.0008076026	0.00053961354	-0.00030289553	-0.00047125094	8.559138e-05	-6.54754e-05	0.00019601185	0.00015757694	2.4787476e-05	-0.0004852047	-0.00028725393	0.0004428962	-0.0007221748	-0.0004606482	2.5708136e-05	0.00056418584	0.00029891264	-5.9954123e-06	-0.00097022887	0.0004026401	-0.00025690594	-0.00017980475	-2.1945383e-05	-0.0005781873	0.0008794693	-9.911305e-05	-0.00027347388	-0.00026233887	-0.00014212212	-0.00040280167	0.0005286931	0.0004319977	0.0004185923	0.00024881243	1.3470696e-05	-0.00027931758	-0.000359622	-9.572294e-05	-0.0005024555	-0.0003595631	0.00011113395	-4.886249e-05	3.2154348e-06	-0.0004568316	8.383824e-06	-0.00050388125	0.00048789877	-0.00040252702	3.8001103e-06	8.718858e-05	-5.3473283e-05	-0.00011574504	0.0006320052	-0.00061273965	0.000428788	-0.00019537336	-2.3467199e-05	0.00043066655	-0.00024277242	-0.0002639425	-0.00035032132	-7.1992865e-05	0.00012081871	-0.00022590505	-0.00031863473	0.00048138102	-0.00050279923	0.0005706288	-0.00028284456	-6.474528e-06	0.00011705675	0.0005303254	-0.00035845954	-0.0010586915	-0.0008156613	0.00055891194	-0.0012431005	0.00036547906	-0.0001751618	-0.00024992396	-0.00049278873	-0.0005755562	-0.00090393843	0.00019377666	0.00019887504	0.0006937003	-0.00015796113	0.00051277864	-0.00043513696	0.0004240061	-0.000770944	7.274636e-05	-0.00059467054	-0.0002822194	9.5363976e-05	0.00023995023	-0.00047989786	0.00023137126	0.00021517211	-0.00072183384	0.0005144439	0.00014923912	-0.00011295544	0.00032569683	0.00018168896	0.00025585384	-0.000829148	-3.5949255e-05	9.097894e-05	-0.0005726723	-0.00026109637	-7.082512e-05	-0.00048107048	-0.0008757417	-0.0004724417	0.0003016764
Von Mises–Fisher distribution_18	0.00021531385	0.0005520324	0.0004672782	0.00015452596	0.0004650186	9.446023e-05	0.00015943545	0.00026434174	0.0006303988	-0.0002692784	-0.00033970797	-0.00027875658	-0.0002697735	0.0002828512	0.0006099323	9.758424e-05	0.00061288243	0.00015767348	-0.0002127217	0.0007866379	-0.00049512275	-0.00026338783	-0.00044288568	0.00019460877	-4.8512902e-05	-0.00018755948	-0.00035082884	0.0007169978	0.00072619476	-0.00016135281	-0.00031076468	-0.00048076722	-0.00047405637	-0.00057206553	-0.00019781954	0.000711558	-0.0008748506	0.00053103914	-0.00014878403	0.0008364011	-0.00035617396	0.00067752384	0.00044304298	-0.00079881214	-6.6418434e-06	0.00012989032	-0.000444108	-0.0002752851	0.00030283534	0.0003444332	0.00037720197	0.0010578644	-0.0011230834	0.0011689899	0.00076172454	0.000684438	-0.00027207876	-0.00056289387	0.00044434532	-0.0007199075	0.0007464004	-0.00011720572	7.480861e-05	0.00044970878	-0.00064629037	-5.2522635e-05	-0.0004924631	-0.0003296428	0.0002856491	0.00030074237	0.0011026027	-0.0003006331	-0.0004697959	-0.00016726732	0.00045382776	0.0003939217	-0.0006026533	-0.00095729	0.00049566367	-0.00026728623	-0.00054009084	0.00057020545	0.00024456973	0.0005592911	-0.0002975432	-0.00020028026	0.00017534506	6.688976e-05	5.1640807e-05	-0.00042332386	0.0006452141	0.0004724966	0.00037546936	-0.00083600177	0.00027582535	-0.00055963185	0.00021104723	-5.5396657e-05	0.0007161453	-0.00019744206	0.00045226017	0.000777126	0.00089488	-0.00035437665	-0.0004078291	-0.0005733657	-1.7782013e-05	0.00022444404	0.00048709405	-0.00019419093	-8.1233935e-05	0.00046082868	-0.00048351302	0.0006092718	-0.0006099782	-8.295934e-05	-0.00044916468	0.0010890831	0.00072518206	-0.00011098246	0.0013838727	-0.00066955155	0.00055804005	0.0009486444	-3.3616282e-06	-5.6436015e-06	0.0009092032	-0.00064724573	-0.00027037112	-0.00033356552	0.0003289509	-0.00035051373	0.0011359482	0.00059905654	-3.92918e-05	0.00039594024	-6.988689e-05	-0.00044825624	-0.0005278183	0.00015641836	0.00015777834	-0.00055784575	-4.1962834e-05	0.00086490577	-0.00026126287	0.00022087649	-0.00076242496	-0.0004267584	-0.00044693405	-0.00022273655	-0.00036378755	0.0007984328	-0.00027687853	-5.328139e-05	-0.00052229007	0.0007267946	-0.00063703017	0.00026684612	-9.0068985e-05	0.0010797064	-0.0004985092	0.00046254604	-0.00023436162	-0.001073449	-0.00077284034	-0.00041862144	0.0007903603	-0.0008261373	-0.0006102858	-0.00010172697	9.18404e-05	0.0005581729	-2.652107e-05	0.00022519498	0.0009508386	-0.00057310826	0.0010695005	-0.0006683399	-0.0002851006	-0.00055768836	-0.00020401139	0.00048417525	-0.00031038758	0.00017985294	-0.00018330039	-0.00035285507	-0.0008655431	0.00075272104	0.00025928562	-0.00057800446	-0.00032523437	0.001088174	-0.0012574671	0.0005290517	0.00031248078	-0.0003118069	0.0005857865	-0.0013324395	5.1864947e-05	0.00019377151	-0.0008888781	-0.0003025746	-0.00057492993	-6.9953734e-05	0.00027907945	-6.170431e-05	0.0005241769	-0.00014962387	-0.00018523261	-6.141238e-05	0.00042191808	0.00032496045	1.0103026e-05	-0.00079847575	0.00083696883	-0.00011004697	-8.493805e-05	0.00023683808	-0.00089890044	-0.00018186437	0.0008538353	0.00017883726	0.00047121532	0.00034821127	0.00042161974	-6.514254e-05	0.00095237535	6.452656e-05	0.00037149966	5.282865e-05	-9.945033e-05	0.00053926656	-3.81416e-05	-0.0005654618	-0.00020647801	-0.00045418506	0.00059704174	-0.0005064153	0.00060210313	-0.00032292644	-0.0001286125	0.0007327878	-0.0005194158	0.00064106024	-0.0010140765	2.0617716e-05	-0.00035513184	-0.00018562435	-0.00014294883	-5.3439522e-05	-0.000103101986	0.000700376	-0.0006961431	-0.00015819159	0.00034110624	0.00041309965	0.00028561038	-0.0009627274	-0.0005407888	-0.00023960159	-1.527107e-05	-0.00024245858	-0.00019054506	0.0006629739	-0.0007772063	0.0003195542	-0.0010290215	0.00081388635	-5.8113965e-05	0.00027629398	0.00039991806	0.00033555576	9.244694e-05	-0.00036550942	0.0005810002	0.0004331197	0.0005064565	-0.0006316125	0.00042063903	0.00035871842	0.0013351497	-0.00025394725	-0.00033009597	-0.00017961055	0.00015347353	0.00036380274	0.0010182443	3.2937813e-05	0.0003984555	0.0006287745	-0.00019194542	0.000427498	0.0004878906	-0.00087878265	-0.00060085364	-0.0005571156	-0.0010452383	-0.000887633	-0.00011120434	-0.00011333168
Von Mises–Fisher distribution_19	5.694572e-07	-0.00019507913	-0.00045733404	7.934644e-05	0.00063528406	0.00026445746	-0.00026769735	0.00058085914	7.900258e-05	0.00088543596	0.00041276385	0.0005892613	-1.27854755e-05	0.00046879094	-0.00011962706	0.00069611386	-5.232168e-05	-0.00069097744	0.0002056841	-9.068162e-05	0.00020319139	7.262708e-05	-5.4196462e-05	-0.0002757133	-0.00027070197	-0.0006407279	-4.509331e-05	0.0005089009	0.00016528423	-0.0003265185	-0.00020944604	0.00047486098	-0.00047660284	0.00022011383	-0.000105616884	1.5360385e-05	0.0009003505	-9.841607e-05	2.4466146e-05	-0.00020139237	2.852527e-05	-6.9033194e-05	-0.0002064954	-0.00028757416	0.00021273302	-0.00043771797	-0.00047625462	0.00022319725	0.00020585151	-0.0003192321	0.00018984237	3.729004e-05	-0.00023146118	-0.00022897145	1.4903746e-05	1.0495447e-05	-0.0008548802	0.00044564554	-0.00048403727	0.000308874	0.0008850867	-0.000104121355	0.0004748921	-0.00073728786	-2.4469176e-05	-1.2208079e-05	-0.00039529186	0.00019306652	-1.31386505e-05	-0.00029976937	-0.00015857711	-0.0003470945	8.194143e-05	-0.0004912557	0.00016517518	5.408575e-05	0.00017780137	0.0004378573	-0.0003781863	7.037276e-05	-0.00015903663	0.0009474637	0.0004923678	5.462049e-05	0.00033917784	-0.00020926066	4.293431e-05	0.0006573849	0.0005362352	-0.00023533407	-0.00057445746	0.00038296534	0.00037573065	-0.0005714449	0.00018683804	0.00020453776	0.00019788757	0.0005781172	0.00015949151	0.0012563865	0.00026374985	-0.00020932328	-0.00023834375	-0.0009746642	0.0004349527	-2.3782184e-05	0.00020295553	-0.00018099553	-0.00010872995	0.00016860566	0.00051103235	-0.00019638997	0.00060262333	-0.00025150288	0.00021283687	0.0003361993	0.00065694517	-5.0726067e-05	-0.00020318138	0.0004862086	0.00020339724	0.0006647217	3.6044792e-05	0.0007749541	5.5384844e-05	0.00014196332	-0.0003020397	0.00020629421	-0.0005968857	0.00046989167	0.00016511972	-0.00036037306	0.00023844547	-0.00031139972	-0.0005837289	0.0006453601	0.0001079316	0.00057296245	0.00052834273	-0.0006103222	-5.263323e-05	0.00055812334	-0.00018656332	0.0001001682	-0.0001168741	0.0004421207	-0.0004639687	-9.237734e-05	-0.00028601554	-0.00021719534	-0.00034856613	-0.00037631832	-0.0002576071	0.00088005094	-5.588534e-05	-7.620147e-05	-0.00018520468	0.00018771683	0.0003333756	0.00031220997	0.0011101844	-0.0002575228	-0.00017822438	-4.3258697e-05	-0.00044862283	0.00046632154	-0.00021621038	0.00041670748	0.0001230546	-6.7688394e-05	-0.0004329908	0.00014716007	-0.00082816184	-0.0004951308	-0.000875061	-0.0002796127	0.00057927973	0.0003139822	-0.0003366648	0.00030966336	-0.0006578852	0.00063838	-0.0002380454	-0.00059594214	0.0007311784	-0.0006241393	0.00029499477	5.212211e-06	-0.0002657412	6.894436e-05	0.0005919814	-0.00013368708	0.000104571576	0.00043985323	-0.00096827745	0.00020335431	0.00032068364	0.00010638523	-0.00010699719	-0.00038248714	-0.00010361117	-0.000651298	-0.0003981529	-0.00022533417	-8.465315e-05	-0.0008379842	-0.00045462852	-0.0007228566	0.00025088628	2.965451e-05	0.00076008204	-4.9367313e-06	-0.0001220175	0.0004267484	-6.327295e-05	0.00037211907	0.0004059743	0.00023267337	-0.0008526339	-0.00045630647	-5.7507947e-05	0.0004559572	0.00027166627	-0.0002558118	-0.0006981235	0.0003234773	-0.00054106646	-0.00082147226	0.00045614745	0.00029394712	-0.0002938897	-0.00056235737	6.462125e-05	-0.001050749	-0.0005527971	-0.0008100318	0.00016854875	0.0007992343	0.00019639244	-0.00047980924	-0.0009105263	-0.0001351011	0.00069273065	0.0004018458	5.1639345e-05	-3.078021e-05	0.00019326575	0.0009959152	-0.00070042827	-0.0009811446	2.4061417e-05	-0.0001686888	-0.00040531502	-0.00027985685	0.00092204305	0.00036983617	-0.0005485214	0.00014885579	-0.00012318794	-3.747419e-05	0.0006306024	0.0008588737	-6.874881e-05	-0.0002250144	0.00053777307	-0.000102930586	0.00016954532	-0.0009826657	0.0006752803	0.0010638942	0.00010993731	-0.00025739	0.00084926083	-0.0005486778	-0.00048579945	4.73425e-06	0.0004111831	0.0001588751	8.890042e-05	-0.0005107427	-0.0008556406	-0.0003720344	-1.0053487e-05	0.00034831892	3.894909e-05	0.0008653238	-8.8768094e-05	-0.0004996487	-0.00032992777	-0.00051333057	9.623521e-05	0.0007252507	-0.00068935845	-0.00035630877	-0.00044222974	0.00010324912	-0.0005075871	0.00056369754	-0.000112206886	0.0009066711
Von Mises–Fisher distribution_20	-0.00015949552	-0.00031650244	-0.00020640389	-8.588293e-05	0.0002939217	-0.0001264945	-8.684398e-05	0.00064381235	0.000102453196	-4.968666e-06	0.00025748496	-5.577429e-05	0.00048514683	-0.00016216323	0.0004480434	0.00014961857	0.00048296998	-0.0005326858	-0.00015344509	2.9304265e-05	-8.9282956e-05	8.388208e-06	0.00046856827	8.6166e-05	-0.00016228098	7.6888523e-07	0.00022858594	1.5007238e-05	3.7791702e-05	-0.0002559729	0.00013686156	0.00045346277	-0.000119308075	-1.2979839e-05	0.00017429916	0.000252516	0.0003034605	-0.00051772204	9.0453184e-05	-1.9657888e-05	-0.0002685394	-0.00014282415	-0.00032300834	-0.0003032018	0.00044127833	-8.719741e-05	-0.00047861	-0.00033665297	0.0001558264	0.00023214782	3.660112e-05	-0.00036573067	-0.00066376885	-0.00025568673	-7.739141e-05	-8.908299e-05	-0.00054124533	0.00044119605	-0.0002670674	4.4634176e-05	0.00050304737	3.3220956e-06	0.00015304457	-0.0001458974	-0.00011558119	6.2799245e-06	0.00020282801	0.00056298857	0.00035201042	-1.8911398e-05	-3.866335e-05	-0.00028209802	0.00015550149	-6.2186795e-05	-0.00020113909	9.19546e-05	0.00055192725	0.00015727308	-6.052166e-06	-8.249321e-06	0.00010895817	0.000243523	0.0005767972	0.0003914453	-4.169943e-05	-0.0003224826	0.00019638753	2.5668734e-05	7.1110735e-05	-0.00013522667	-0.0005691881	0.00051286473	0.00025247794	-0.00013330326	1.4111242e-06	0.00016210054	-0.00014422525	-3.92069e-05	0.00037317752	0.00033912587	4.9629243e-06	-0.00017302264	-3.683093e-06	-0.00032058154	0.00022725538	-0.00014500885	8.079256e-07	-8.3507526e-05	-0.00023655749	-2.8943747e-05	0.00026454398	-6.334093e-07	0.00030810514	0.0002356816	0.00029165146	0.00024796167	0.00042362188	0.00036525505	0.00018220893	-5.616873e-05	0.00055299146	-6.1550495e-06	-0.00029324775	0.00021721562	-0.00053611794	-5.0292718e-05	-7.518624e-05	0.00028072143	-0.0003095173	-0.0002459642	-4.9252852e-05	-0.00058241934	2.1659238e-05	-2.639776e-05	-5.173187e-05	-5.2130723e-05	0.00031724412	0.0005653706	5.970022e-05	-0.00035806512	4.2946267e-05	-0.00033691616	-0.00026354592	-0.0002705108	-0.00015847143	-2.9921603e-05	-0.0003882267	-0.00017622909	-0.00047677394	-0.000447658	-5.312209e-06	0.0001264869	-0.00020260044	0.00018192781	-0.00021583197	6.917307e-05	3.314061e-05	-9.990533e-05	1.8471512e-05	0.00015767434	0.0002580886	9.383896e-05	-0.00016078743	-9.990087e-05	-8.463669e-05	0.00015240506	-0.00024290828	-0.0001220954	3.8013288e-06	1.0916949e-05	-7.1026254e-05	-6.507107e-05	-0.00016067133	-0.00014909216	-3.249769e-06	-0.00033528765	0.00027083035	-0.00012944441	-0.00021076179	0.00015888407	-0.00046953518	0.00013575477	-0.0003504453	-0.0005213335	-8.909494e-06	-0.0005538322	8.247154e-05	0.00013711865	0.00020314101	-0.0001339055	0.00017661044	0.00019592058	0.00033827816	-0.0002505261	-0.00036913774	0.00010912881	0.00011406814	-0.0004189148	-0.00023404066	-0.0003004924	-0.00010312094	-0.00033807365	-0.00027502826	-0.000120614386	0.00019475118	-0.00027420634	-0.00012498519	-0.00046119647	0.000166984	-2.2098893e-06	-3.4433906e-05	-0.00014469356	0.00014439749	-0.0002599984	0.00029010462	9.996587e-05	0.0004393765	1.30712515e-05	-0.0003487192	-0.00063695177	-0.00010219008	3.8284612e-05	-0.0002951857	2.551921e-05	0.00011944904	0.0003176426	-0.00017751225	-5.644983e-05	0.0002893485	0.00011678507	-2.6472811e-05	-0.0005541344	3.7873844e-05	-0.00042203406	-0.00019329677	-0.00028828322	0.00033986202	0.0003160626	4.5841894e-05	-0.00017643135	3.6504323e-05	-5.6260382e-05	0.0004834959	5.672215e-05	-0.00043735973	0.00027637128	0.00060120854	9.340169e-05	-0.0003318803	-4.4131393e-05	0.00023678444	0.0003466987	7.0533184e-05	-9.802051e-05	0.00018263867	-8.757146e-05	-0.00037645793	-8.365646e-05	-0.00044158907	0.0003210859	-0.00013269494	0.0005018775	2.16392e-05	-0.00018591108	0.00080783875	-0.00018156151	0.0002550691	-0.0003277025	0.00030445715	0.0003328396	-7.8502984e-05	0.00027485148	0.00023761022	-0.00026361944	8.578234e-05	2.091212e-05	7.550383e-05	-0.0004096844	2.5046957e-05	-0.0005068059	-0.0003383409	-0.00026181477	-1.9354302e-05	2.2820896e-05	0.00019146585	0.00060476706	-7.183518e-05	0.0002612639	-0.00018637271	0.00010887171	1.7584804e-05	0.00040526097	0.00020250848	-0.0007578281	-9.278223e-05	5.552954e-05	-0.00021823827	-0.000113389586	-0.0003647114	0.000437352
Von Mises–Fisher distribution_21	0.0010249751	-0.0011300702	-0.00076437433	-0.0013898493	0.00085390435	-0.00041743324	0.00083573983	0.0001482663	0.00026951454	-7.434263e-06	0.00026901576	-0.00014752825	0.000485716	-0.00057993113	-0.0009198597	-0.0005862248	-9.154833e-05	0.0009842254	-0.00014012204	0.00027004318	-0.0005456542	-2.3481067e-05	-0.00016859295	0.0006532129	0.0002144813	9.446334e-05	-0.00045672889	0.0007290337	-0.00053430494	-0.00039299866	0.0011321871	0.000115687486	0.00070387684	0.00022565947	-1.411658e-05	-3.9271672e-05	-0.00027648537	-0.00024372655	0.00041377827	0.00056921045	-0.0006835764	0.00056682614	-0.0007195087	-0.0008705347	-0.0006302762	0.00025467144	-2.3484929e-05	-0.00018369728	0.0006886476	0.00037871266	0.0008064617	-0.00032055005	-0.0006838977	-1.6453589e-05	-0.00060526753	-0.00081228325	-0.0009909723	-0.00038926172	-0.00023423345	0.0007316433	-0.0006253586	-3.542559e-05	-0.00044229045	-4.1761126e-05	0.00019647327	-0.00032337068	0.00044786636	-0.0011212671	-3.3970962e-05	-0.00019476197	0.0003230831	-0.0005894662	0.00015296925	0.00015079619	6.333974e-05	-0.00014082262	0.00023121014	-0.00014215423	-0.0006625911	-0.00017037726	0.0003963808	-0.00045037456	0.0009046038	-0.0014642881	-0.00013810303	0.00034327782	0.0010280107	-0.00044209778	8.4276624e-05	0.00039918534	-0.000438304	-0.00025198926	-0.0007535598	0.000908868	0.00012475667	0.00013639849	-0.0009522024	-0.00019267481	-0.00052491785	5.8999693e-05	0.0010190338	-0.0004906258	-0.0010120102	0.00042011132	-0.00039377352	0.00029802704	-0.00073222397	8.45237e-05	0.00020467308	0.0002442902	-0.00016323636	0.0006330076	0.000627301	0.00056666473	-2.2297027e-05	-0.00038955512	5.203213e-05	-0.00050465076	0.00046110878	4.0237675e-05	0.00058473524	-0.00021569035	-0.0014838511	-0.000105116516	-0.0002411664	-0.00011230734	-0.0003712857	0.00042975342	0.00031389252	0.0002964219	6.707121e-05	0.0009831138	-0.00033312012	0.00090505974	0.00068066915	0.00068708946	0.00029496264	6.264322e-05	0.0011051398	0.0002299547	-0.0005091704	0.00018997025	-0.00012639462	0.00028553154	0.0003502704	-0.00023231634	0.0004203977	-5.8664053e-05	-5.0452265e-05	-0.0006874034	-0.0008118202	0.0011030808	-0.00086475845	-0.00084197987	-0.000193222	-2.7969456e-05	-0.0008805634	0.000622141	-0.000695008	-0.00038035426	-0.0001586547	0.0005803622	-5.054346e-05	0.00024926616	0.0002027581	0.00055549556	-0.000107480875	-0.00044095586	-2.3130095e-05	0.00023721917	0.0013331842	0.00015631522	0.00016065784	0.0009435781	5.0625928e-05	0.0015452538	0.00048282967	0.00074944255	-0.0008760461	6.910631e-05	1.8735134e-05	0.001121955	-0.000116451294	0.00033883922	0.00017064977	0.00045139084	0.00031488886	-0.00029072782	0.00027761614	-0.00019687712	-0.00010190592	1.9862977e-05	-0.0003331699	5.7865866e-05	-0.00023491518	-0.00058268453	-0.00088076136	-0.0003878742	0.00013114912	-0.00013283896	0.000826173	-0.00023774336	-0.0006685999	0.00086404197	-0.00062457245	-0.00020981794	-0.0004446026	-0.00080483087	-0.00024930527	-6.8241534e-05	0.00034305654	-0.00065107323	-0.0002498492	-0.00042538717	0.00024248297	0.00047299	0.00045678372	-5.488251e-05	0.0006408102	-0.0009965254	-0.0008264226	-0.00040971884	-0.0006689066	0.0007370206	-0.000982364	-0.000527812	-0.0002203319	-0.0001874095	0.00041877475	0.00015351397	0.0012151018	-0.0005698505	0.00013437337	-0.00019057262	-0.0004163786	0.00039299697	0.0010178689	0.0004083352	-0.000285049	-5.183202e-05	-0.000914002	-0.00014215586	0.0005588829	-0.00030528673	0.0003652803	0.00020741652	0.000112113485	-0.00010604039	-0.0006746081	0.0013575129	-0.00010065901	0.00032576456	0.0005745086	2.4040914e-05	-0.00042979175	0.00027010593	-0.0008883626	-0.0011414065	-0.0013634166	0.000986817	-0.0010959692	0.00025968454	-0.001023737	0.00026771196	-0.000903977	-0.00044101724	-0.00026458604	0.00038112383	5.4603835e-05	0.0007466483	-0.00019789592	0.00045269294	-0.0006004884	0.0004291979	-0.00015712153	0.0005655646	-0.0009859365	-2.4508181e-05	0.00043787967	-0.00013167986	0.0001659798	0.00075208815	0.00010883063	-0.00046379966	0.00030804583	0.0006154006	-0.00077618886	-0.0003282392	-0.0003990451	0.0003071404	0.00033151626	0.00046696464	-8.635622e-05	0.00038111405	-0.00036653	0.00058016344	-0.00046010202	-0.0009438489	0.00013472683	9.807305e-05
Von Mises–Fisher distribution_22	0.000399302	-5.62585e-05	-0.00055152253	-0.0009752608	0.00010884922	-0.0005791324	0.00015915393	0.0011101847	-0.00022769593	-0.00045670438	0.00035379446	-4.601176e-05	0.00037397826	-0.0008263926	-0.00057984685	-0.00036198614	0.0004425888	0.00012184769	-0.00052427064	0.00041282937	-0.0008398591	6.625035e-05	0.0003721819	0.0005084718	0.00089396845	0.00023453427	-9.457063e-05	0.00048619288	-0.00017845434	7.328015e-05	0.0002445509	0.0006790895	-0.00019023009	-0.00048631034	5.574829e-05	0.00041148826	-0.00045016958	-0.0005906984	5.108155e-06	0.000529711	-0.00031284388	0.00016547943	-0.0007779582	-0.0008938105	-0.0005713172	0.00054026564	-0.0002399523	-0.00025448913	-0.0001916464	0.00018543053	0.00047555976	-0.0002233927	-0.00022268055	-0.0001312906	9.7396165e-05	-0.00016517048	-0.0006497817	0.00025929234	-0.00043327073	0.00079354504	-0.00018373346	-0.00024688247	-0.00019235552	0.0003500528	-2.7211927e-05	-0.00094151596	0.0012038489	-0.000320419	0.00027655964	-0.00015840847	0.0007932866	-0.00021600556	0.00024427363	-4.3703167e-05	-0.0003724414	-0.00085619994	0.00051801425	-4.08331e-05	-0.0005914244	0.00013761257	0.00084538566	-0.0010284595	0.0005202661	-0.0011188271	0.00033647506	6.0286115e-05	0.00093480415	-0.00048386081	0.000856113	0.00018373998	-0.0009857977	0.00041962994	-0.00027597675	0.0010110653	0.00026619702	8.224892e-05	-0.00015809141	-0.00021898297	-5.650507e-05	-0.0001041934	0.0010148287	-0.0008613358	-0.0007725305	3.895901e-05	-9.379335e-05	0.00057259534	-0.0009525173	0.0007131602	-0.00051686337	-0.00037952876	-0.0007364421	0.0005791993	0.00030926007	0.000632873	0.00033159406	-0.00037891	9.876696e-05	-7.284607e-05	0.00011593511	0.00053149596	0.00052438834	-0.0004763756	-0.0014724805	-0.0003058146	-0.00087394525	-0.00056685664	0.00035781076	0.00039548217	0.00020043731	-0.00014331876	0.00059385673	-2.2469554e-05	-0.0012000185	0.00097201514	-0.0002748181	-0.0003097277	0.00038509944	0.00025518137	0.00037250706	-0.00075291446	-0.00034547076	-0.00040660458	0.00014428403	-0.00031742008	0.0004087969	-6.689867e-05	4.1636275e-05	0.00026663564	-0.0005924685	-0.0010005278	-0.0005044508	0.0006254093	-0.00086398283	-0.00021580148	2.728717e-05	-7.391812e-05	-0.00010964096	0.0004845782	-0.00092838105	8.721215e-05	-0.00053054164	0.00026131075	-0.000449413	0.00058543816	0.00017872614	0.00078246463	-0.00047509978	-2.4372217e-05	-0.00071759947	0.0004500586	0.00081414846	-0.0002868992	0.00015725961	0.0011412436	7.9548736e-05	0.0012841973	0.00024133651	8.994446e-05	-0.0006140609	9.9792924e-05	8.992705e-06	0.00018906571	0.00018991173	-0.00034921442	0.00030694573	0.0009251167	0.0001242435	-0.0012697309	0.0003069177	-0.00016604848	0.00026581335	0.00014415527	2.3775288e-05	-0.0009807056	-0.00032551595	0.00018079636	-0.0009300432	1.9478393e-05	0.0002601519	0.00036315338	0.0007356505	-9.9886865e-06	-0.00072590023	0.00059536815	-9.564838e-06	-0.00053421705	0.0003541012	-0.00061331614	0.0005584126	1.6797645e-05	-0.00030874836	-0.00055314123	-0.0003805129	-0.00066844147	8.476427e-05	0.0004569774	0.00031080013	-0.00016172389	0.0003829339	-0.0006464008	-0.00058270583	0.00016411346	-0.0005090372	-0.00021090078	-0.000591999	-0.00025100523	-0.0003389231	-0.00032822546	0.00020290566	-0.00049866346	0.0008117456	-0.0006949051	0.00046851757	0.00037714283	-0.00014859659	0.00067071157	0.00020595599	-0.00012098835	0.0005168079	-0.00019453016	-7.199948e-05	-7.689882e-05	0.0004721094	1.9362196e-06	0.00041195937	-0.00032711585	0.00028785862	-0.0004769717	-0.0006771448	0.0014006445	-0.00056963164	0.0010231071	0.00040752813	0.00028953227	1.7667538e-05	0.0007921295	-0.00056978123	-0.0011728604	-0.0010596082	0.0012095474	-0.0014170478	0.00051248167	2.5695519e-05	5.5664957e-05	-0.0005390288	-0.00032722202	-0.0007102073	-0.00016930315	0.00045373998	0.00028237666	-0.000433656	0.0012092701	-0.00033981234	0.0009363052	-0.0003784	0.0007305735	-0.00067672506	9.507864e-05	-0.00032593377	0.000298736	-0.0006897621	0.00035867534	0.0004349803	-0.00078921294	0.0002486381	0.0005591818	-0.0006469788	6.925509e-06	-0.00011289186	0.0004956614	-0.00054448866	-0.0001057259	0.00042948988	-0.0005205097	-0.00039466924	0.0004897418	9.382453e-05	-0.00094916223	-0.0007840195	0.00021741027
Von Mises–Fisher distribution_23	-4.238291e-05	-0.00024663514	-0.00031919812	-0.00035943522	0.0006532209	1.6494807e-05	0.00014839573	0.00027475262	0.00014857744	0.000463572	0.00022116902	0.00037198968	0.00014048703	0.00011994639	-0.00022279199	0.00045956118	5.057398e-05	9.3466646e-05	0.00019537809	3.3926866e-05	-8.530238e-05	0.00010286646	-0.0003407831	-6.992367e-05	-4.6382043e-05	-0.00029972475	5.850751e-05	0.00042611998	-3.4244607e-05	3.2810145e-05	-9.9107085e-05	0.00029404642	-1.3706105e-05	-3.7117104e-06	0.00027227224	2.2915658e-06	0.0005704405	5.5171105e-05	0.00014802106	8.316319e-05	-4.1561998e-05	-6.09613e-05	4.8736758e-05	-0.0001204605	0.00028526835	-0.0002730365	-0.00037226683	0.00020183309	0.0003346343	2.300687e-06	0.0004490642	-0.0001884714	-0.0002449618	-1.4293286e-05	8.294242e-05	4.9956892e-05	-0.00071178813	0.00030822115	-0.00020661729	0.00033314573	0.00043824053	0.00024459264	0.00031605287	-0.0006457181	0.0001446684	5.0918432e-05	-0.00014282216	-2.8082315e-05	-1.1413254e-05	-2.731675e-05	0.00015372178	-0.00045357022	-0.00018803407	-0.00040652853	8.1718965e-05	0.00011269851	0.000116266994	-9.874646e-05	-0.00038063506	0.00017213929	-0.00018886963	0.0006321469	0.00043833992	-0.00014236274	0.00025173018	-0.00037260592	0.00037992134	0.00025472965	0.00036027448	-6.559765e-05	-0.00047070597	-8.882691e-05	3.0794894e-05	-0.00017840277	0.00018135185	3.0377923e-05	-6.167563e-05	0.00019475445	-0.00011075521	0.00066134136	0.00035996846	-1.6380294e-05	-0.00011717582	-0.0005130596	-1.8235347e-05	-9.323738e-05	3.853738e-05	-7.168848e-05	-5.811354e-05	0.00014094477	0.0004030675	9.661028e-05	0.00011815534	-0.000103260296	9.331763e-05	0.0002583883	0.000343564	3.922673e-05	-9.291487e-05	3.345994e-05	0.00045985403	0.00014034926	-9.351554e-05	0.00032340927	-0.000147705	0.000119220946	-0.00038392024	0.00011297088	-0.00025627378	0.00037362316	-6.332835e-05	1.4155905e-05	-8.256096e-06	0.000119950295	-7.729902e-05	0.00033271997	0.00019107145	0.0001701102	0.00040191747	-0.0001758534	1.5969243e-05	0.00028746144	0.000100752244	0.0002093385	-0.00014020628	0.00013863355	-0.00027583214	-2.9900582e-05	-0.0002856575	-0.00035334076	-0.0002837035	-7.761225e-05	-0.00037590455	0.00031886384	-0.00017488255	-0.00011450262	-0.00029538304	0.000111674584	1.7399714e-05	0.00027460698	0.00044127353	0.00010569063	-0.0002007437	4.3394644e-05	-4.622083e-05	0.00020005954	0.00015080413	4.516267e-06	3.4680426e-05	-0.00010165062	0.00015690876	-0.00021216844	-0.00042658375	-0.00016101594	-0.00033484743	0.000110085704	0.0005421075	0.00036056904	-0.00019842216	-6.7675137e-06	-0.00045235935	0.00067396427	-8.618609e-05	0.00010150699	0.000420909	-0.00042215496	0.00039365687	4.1878193e-05	-0.00040461164	5.4239314e-05	0.00021007944	2.7730543e-05	2.0176794e-05	0.00022242991	-0.00040797578	0.00014248176	0.00010900112	-9.719228e-05	-0.00016501172	-6.676592e-05	9.047476e-06	-0.00042313663	-0.0003334917	-4.5440473e-05	-0.00023104748	-0.00036027233	-0.00040255627	-0.0004688424	0.00017166095	-2.5871519e-05	0.00037274027	2.3974153e-05	-0.0003158989	1.1012098e-05	1.9589643e-06	0.00042032357	0.00026532685	6.716421e-05	-0.00038010007	-0.00033872022	-6.8877955e-05	4.813632e-05	-1.0057801e-05	0.00022331858	-0.00077030517	-5.8346148e-05	-0.00035356663	-0.00026547673	0.0003585462	0.00015260435	-0.00020892783	-0.00027796204	-4.418911e-05	-0.00066658563	-0.00031164527	-0.0005263578	0.00014668584	0.00041965273	0.00020180168	-0.00015945852	-0.0006848818	5.1820418e-05	0.00070004177	9.198913e-05	-1.9624082e-05	0.00024850282	0.00019671295	0.00049087626	-0.00048175207	-0.0004080884	5.901719e-05	-7.528e-05	-0.00016248028	-0.00018709368	0.0003210621	5.5569362e-05	-0.00020530322	-9.310444e-06	-0.00039392625	3.104946e-05	0.00010061115	0.000727633	-0.00034984655	0.000109166685	0.00036486928	-2.3312028e-05	0.00015893542	-0.0004389175	0.00018627226	0.00070166733	0.00020366519	0.00012542235	0.00045389347	-0.00041124047	-0.00019117138	8.524694e-05	8.072355e-06	6.28289e-05	7.2556184e-05	-0.00046350836	-0.00046606618	-0.0002228281	-0.00010211003	-3.1110838e-05	-3.6891557e-05	0.0005180412	-0.00014542835	-0.0005261469	-0.00026275584	-0.00013073378	0.0003506932	0.0004759899	-0.00027411742	-0.00024726143	-0.00034302572	8.551778e-05	-0.000267773	-2.2241942e-05	-0.00033624872	0.0004103003
Von Mises–Fisher distribution_24	-0.00016107035	-0.00016356137	-0.0001591593	-0.00021660606	0.000341684	-0.000117930416	-0.00018885998	0.00044122324	1.5111621e-05	-8.070814e-05	0.00033473948	0.0002449118	0.00026213014	-0.00026242697	0.00041763863	0.00046137205	0.00026562816	-0.0005161796	5.290642e-05	2.9022103e-05	-0.0001311843	0.00012875616	0.0005029127	-4.5106364e-05	-0.00040374245	-0.0003712122	6.350208e-05	8.298107e-05	0.0003485861	-0.0001849365	-0.00032484494	0.000121938894	-5.9985985e-05	-0.00019584475	0.00045554942	-9.8043754e-05	0.00026832687	-0.00062614144	0.0001252407	9.528458e-05	9.033751e-05	-8.856677e-05	-8.945409e-05	-5.7358488e-05	0.00051179127	-3.9722127e-05	-0.00023852199	-0.00017472994	8.724756e-05	0.00012821038	-2.2167806e-06	-0.000498966	-0.0004882302	-6.857086e-05	-3.463006e-05	-0.00011033928	-0.0004505193	0.0002637181	-0.00036449003	-0.00012295021	0.0006568232	0.00018636609	-6.0986014e-05	-0.00035747382	-2.6890302e-05	3.6485028e-05	0.00036151812	0.0007335357	0.00019443368	-7.592675e-05	-9.637229e-05	-0.0002667439	0.00022477256	-0.000103200255	-0.000132045	0.00029824016	0.00028354084	-8.7466775e-05	-2.0783648e-06	1.3156862e-06	-0.00012603655	0.00029845323	0.000650053	0.0001819386	0.0001146606	-0.0004599169	0.00034120103	0.00019094633	0.00020006787	0.00015405305	-0.00041711374	0.00044757657	0.00015122049	-0.00010721954	0.00018533177	0.00018747321	-7.005498e-05	5.837522e-05	0.0001604099	0.0004268501	-7.759173e-05	-0.00013135184	8.360497e-05	-0.00048355752	0.0001790321	-8.5983425e-05	0.0001453395	-0.0002761786	7.730137e-05	-0.000112924885	0.00026738466	6.471952e-05	0.00033696435	0.00012788114	0.00022287149	0.00028070938	0.0004693275	0.0003276147	0.0001856266	-0.00020709718	0.00068862527	3.9427916e-05	-0.00023358759	0.00015380925	-0.00042799005	-3.948921e-05	-0.00025353846	3.8465965e-05	-0.00024859223	-0.00028121524	-0.00022440491	-0.00052236853	4.6591103e-05	-0.00023098248	-8.591952e-05	6.396789e-07	0.00045175126	0.00048062307	0.00016124097	-9.1416194e-05	9.7397744e-05	-0.00023705917	-0.00018462699	2.9375564e-05	-0.00018622355	7.49654e-05	-9.3923336e-05	6.345085e-05	-0.0004977088	-0.00025632785	-0.00032761082	0.00025579848	-0.00023847623	0.00016939543	-0.00057273515	5.7445413e-06	2.4581446e-05	-0.00016340114	0.00016038373	0.00025263574	0.00029960962	0.000115787465	-0.00020480432	4.1786778e-05	2.226402e-05	4.230137e-06	-0.000108867185	0.0001300552	0.00010811894	4.8441943e-05	-0.00034402695	8.48086e-05	-9.460432e-05	-0.00031117475	9.463778e-06	-0.0002898633	1.8139059e-06	-0.00014891852	-0.00018520428	-3.555347e-05	-0.000611828	0.0002719096	-0.00040855742	-0.0004064489	-0.00016235716	-0.00050787715	0.00023617606	7.272886e-05	0.00022568481	4.8963182e-05	9.2848386e-05	0.0001969338	-2.7507e-06	-0.00013516912	-0.00020570721	0.00019315202	0.0002558515	-0.0004075713	-5.8950925e-05	-0.00023301339	-2.575308e-05	-0.00037467072	-0.0004933263	2.2238373e-05	-3.975321e-05	-0.00016227271	-0.00017476249	-0.0005772695	5.002044e-05	2.1529562e-05	-0.00023833041	5.1461873e-05	0.00010998961	-0.00024410684	0.00010944655	0.00013514872	5.8974972e-05	0.00012788664	-0.00019141792	-0.00049010897	-0.00022349678	5.931249e-05	-0.00026915997	2.473553e-05	8.214762e-05	0.0003154611	-0.00019669229	-1.4164454e-05	0.0004956626	0.00031753708	-0.00023388726	-0.00042516616	-9.745451e-05	-0.00046563748	3.959505e-05	-0.00042106287	0.00042748623	0.00038127354	0.00036772844	-7.7073644e-05	-9.36509e-05	0.0001330922	0.00047745014	-0.00025177974	-0.0005007336	0.00032952128	0.0005602219	5.937591e-05	-9.205254e-05	-0.0003766504	0.00034326606	0.000121339384	5.0332597e-05	-0.00013997595	0.00036733985	-0.00011056822	-0.00032983295	4.8248206e-05	-0.0003400284	0.00023084763	0.00016029537	0.0004764869	-4.921184e-05	-6.3251035e-05	0.00080885255	-0.00019748397	0.0002940047	-0.00023036143	0.00039656527	0.00034993805	-0.00012175396	0.0001980375	0.0003301632	-0.0002942553	7.218574e-05	-0.00010421507	9.707004e-06	-0.00026863243	-2.7099259e-05	-0.0004173336	-0.000349397	-0.00030951542	-0.00017673655	0.00012882195	0.00035598085	0.0004918874	4.1799627e-05	7.5711294e-05	-0.0002655182	6.625762e-05	-4.7245685e-05	0.00014409848	-1.7302735e-05	-0.00064285874	2.27919e-05	-0.00014509514	-0.0002599566	-8.519606e-05	-0.0003664058	0.0006444572
Von Mises–Fisher distribution_25	0.000399302	-5.62585e-05	-0.00055152253	-0.0009752608	0.00010884922	-0.0005791324	0.00015915393	0.0011101847	-0.00022769593	-0.00045670438	0.00035379446	-4.601176e-05	0.00037397826	-0.0008263926	-0.00057984685	-0.00036198614	0.0004425888	0.00012184769	-0.00052427064	0.00041282937	-0.0008398591	6.625035e-05	0.0003721819	0.0005084718	0.00089396845	0.00023453427	-9.457063e-05	0.00048619288	-0.00017845434	7.328015e-05	0.0002445509	0.0006790895	-0.00019023009	-0.00048631034	5.574829e-05	0.00041148826	-0.00045016958	-0.0005906984	5.108155e-06	0.000529711	-0.00031284388	0.00016547943	-0.0007779582	-0.0008938105	-0.0005713172	0.00054026564	-0.0002399523	-0.00025448913	-0.0001916464	0.00018543053	0.00047555976	-0.0002233927	-0.00022268055	-0.0001312906	9.7396165e-05	-0.00016517048	-0.0006497817	0.00025929234	-0.00043327073	0.00079354504	-0.00018373346	-0.00024688247	-0.00019235552	0.0003500528	-2.7211927e-05	-0.00094151596	0.0012038489	-0.000320419	0.00027655964	-0.00015840847	0.0007932866	-0.00021600556	0.00024427363	-4.3703167e-05	-0.0003724414	-0.00085619994	0.00051801425	-4.08331e-05	-0.0005914244	0.00013761257	0.00084538566	-0.0010284595	0.0005202661	-0.0011188271	0.00033647506	6.0286115e-05	0.00093480415	-0.00048386081	0.000856113	0.00018373998	-0.0009857977	0.00041962994	-0.00027597675	0.0010110653	0.00026619702	8.224892e-05	-0.00015809141	-0.00021898297	-5.650507e-05	-0.0001041934	0.0010148287	-0.0008613358	-0.0007725305	3.895901e-05	-9.379335e-05	0.00057259534	-0.0009525173	0.0007131602	-0.00051686337	-0.00037952876	-0.0007364421	0.0005791993	0.00030926007	0.000632873	0.00033159406	-0.00037891	9.876696e-05	-7.284607e-05	0.00011593511	0.00053149596	0.00052438834	-0.0004763756	-0.0014724805	-0.0003058146	-0.00087394525	-0.00056685664	0.00035781076	0.00039548217	0.00020043731	-0.00014331876	0.00059385673	-2.2469554e-05	-0.0012000185	0.00097201514	-0.0002748181	-0.0003097277	0.00038509944	0.00025518137	0.00037250706	-0.00075291446	-0.00034547076	-0.00040660458	0.00014428403	-0.00031742008	0.0004087969	-6.689867e-05	4.1636275e-05	0.00026663564	-0.0005924685	-0.0010005278	-0.0005044508	0.0006254093	-0.00086398283	-0.00021580148	2.728717e-05	-7.391812e-05	-0.00010964096	0.0004845782	-0.00092838105	8.721215e-05	-0.00053054164	0.00026131075	-0.000449413	0.00058543816	0.00017872614	0.00078246463	-0.00047509978	-2.4372217e-05	-0.00071759947	0.0004500586	0.00081414846	-0.0002868992	0.00015725961	0.0011412436	7.9548736e-05	0.0012841973	0.00024133651	8.994446e-05	-0.0006140609	9.9792924e-05	8.992705e-06	0.00018906571	0.00018991173	-0.00034921442	0.00030694573	0.0009251167	0.0001242435	-0.0012697309	0.0003069177	-0.00016604848	0.00026581335	0.00014415527	2.3775288e-05	-0.0009807056	-0.00032551595	0.00018079636	-0.0009300432	1.9478393e-05	0.0002601519	0.00036315338	0.0007356505	-9.9886865e-06	-0.00072590023	0.00059536815	-9.564838e-06	-0.00053421705	0.0003541012	-0.00061331614	0.0005584126	1.6797645e-05	-0.00030874836	-0.00055314123	-0.0003805129	-0.00066844147	8.476427e-05	0.0004569774	0.00031080013	-0.00016172389	0.0003829339	-0.0006464008	-0.00058270583	0.00016411346	-0.0005090372	-0.00021090078	-0.000591999	-0.00025100523	-0.0003389231	-0.00032822546	0.00020290566	-0.00049866346	0.0008117456	-0.0006949051	0.00046851757	0.00037714283	-0.00014859659	0.00067071157	0.00020595599	-0.00012098835	0.0005168079	-0.00019453016	-7.199948e-05	-7.689882e-05	0.0004721094	1.9362196e-06	0.00041195937	-0.00032711585	0.00028785862	-0.0004769717	-0.0006771448	0.0014006445	-0.00056963164	0.0010231071	0.00040752813	0.00028953227	1.7667538e-05	0.0007921295	-0.00056978123	-0.0011728604	-0.0010596082	0.0012095474	-0.0014170478	0.00051248167	2.5695519e-05	5.5664957e-05	-0.0005390288	-0.00032722202	-0.0007102073	-0.00016930315	0.00045373998	0.00028237666	-0.000433656	0.0012092701	-0.00033981234	0.0009363052	-0.0003784	0.0007305735	-0.00067672506	9.507864e-05	-0.00032593377	0.000298736	-0.0006897621	0.00035867534	0.0004349803	-0.00078921294	0.0002486381	0.0005591818	-0.0006469788	6.925509e-06	-0.00011289186	0.0004956614	-0.00054448866	-0.0001057259	0.00042948988	-0.0005205097	-0.00039466924	0.0004897418	9.382453e-05	-0.00094916223	-0.0007840195	0.00021741027
Von Mises–Fisher distribution_26	-0.00017242218	-0.00012925241	-6.537724e-05	-0.00026546646	0.00039727794	9.1828246e-05	-0.00017648158	0.00042045774	0.00025246385	0.000289155	0.0002507085	0.00034808795	8.510467e-05	-6.5483446e-06	0.00023460058	0.0005144229	0.00016663024	-0.0004622519	0.00016365916	7.905224e-05	4.1951942e-05	3.956883e-05	0.00010420601	-2.3666304e-05	-0.00012997292	-0.00031719584	-2.0844192e-05	0.00033447903	0.0003502189	8.0476864e-05	-0.00020683694	0.00015767364	2.6315087e-05	-0.00015410315	0.0004338453	6.52429e-05	0.00021792254	-0.00019659454	-1.872018e-05	9.671441e-05	-3.581071e-05	5.480644e-07	0.00010472726	-0.0002558561	0.0004922979	-0.000115514944	-0.00019710937	-7.280841e-05	0.00024545885	6.9519105e-05	0.00037769735	-0.0001181972	-0.00046871146	1.0579358e-06	0.000121070305	0.000121770274	-0.00039697788	0.00030499516	-0.00022398979	7.2891664e-05	0.0007110322	8.1346625e-05	2.659607e-05	-0.0004565969	-0.00012880513	3.0331012e-05	8.478581e-05	0.00038303976	-2.71681e-05	6.164764e-05	-2.3011491e-05	-0.0004782645	-0.00021927207	-0.00022931963	-0.00013876436	0.0002281935	0.00034379523	-0.00022533238	-6.6807064e-05	-4.5668752e-05	-0.00016840616	0.0003502533	0.00048045712	0.000120967874	0.00010198803	-0.00043480616	0.00028462766	0.00034134614	0.00022074176	-6.684278e-05	-0.00020367917	5.9967155e-05	0.00013200734	-0.00017719544	0.0001056834	-8.893335e-05	4.2632815e-05	0.00013121078	0.0002976696	0.0005100245	0.00011875322	-1.7331786e-05	6.214078e-05	-0.00067528675	9.322985e-06	-0.00020696878	0.000110298475	-0.00027509095	-6.7781315e-05	-0.00011166073	0.00035429205	0.00013993477	0.00021024367	0.00012039251	0.00010469383	0.00030879254	0.00036439658	0.00026756138	-2.2304384e-05	-0.00017396503	0.0005587121	-2.2758453e-05	2.6844738e-05	0.00024117227	-0.0002046283	2.4394114e-05	-0.00014599421	-7.6857614e-05	-0.0001667925	2.714115e-05	-0.0001501606	-0.0004982018	-2.9839362e-05	-8.2026956e-05	-0.00019177854	0.00014959302	0.00023202885	0.0002444289	0.00019601763	-0.00027578924	-1.2636342e-05	0.00010160906	7.4294185e-05	1.480293e-05	-0.00012699304	7.071263e-05	-0.00041935724	-8.732845e-05	-0.00043669165	-0.00022838805	-7.267344e-05	0.00010406975	-0.000250533	0.00035687082	-0.0003418438	-4.8744332e-05	-8.66e-06	6.3774845e-05	0.00025721174	0.00029610214	0.0004747951	-4.983907e-05	-0.00015749576	-9.79193e-05	-9.12112e-05	-0.00017629107	-1.934939e-05	-8.800543e-05	1.591344e-05	-5.5442048e-05	-0.00012983367	-0.00010844275	-0.00028058427	-0.00015517209	-4.8786613e-05	-0.00029195083	0.00021947121	0.00010933314	7.809407e-06	-6.336231e-05	-0.00049144385	0.00045903464	-0.00037677906	-9.4423434e-05	0.00027525902	-0.0005586697	0.0001758535	0.00028162324	1.1000099e-06	-1.699786e-05	0.0003370757	0.00019343916	3.0058418e-05	0.00013074744	-0.00021586474	0.00026826223	9.906242e-05	-0.00041176006	-4.346147e-05	0.000109811874	-7.229681e-05	-0.0003384279	-0.0004756634	-5.9542177e-05	5.3259253e-05	-0.0003558633	-0.00017128237	-0.00056119915	0.00010795875	6.033414e-05	4.741888e-05	3.3669144e-06	1.9318995e-05	-0.00016593047	0.00012753639	7.130955e-05	0.00025181845	0.00010556103	-0.0004642067	-0.00047534774	-2.3597173e-05	5.622384e-05	-3.3331486e-05	0.00012279785	-0.00027696093	0.00021247212	-0.00022940003	-0.00022916557	0.00026527263	0.0002821383	-0.000106816995	-0.0003729254	-0.00016071567	-0.00040288083	-8.30961e-05	-0.00049527065	0.00040525483	0.00026394488	0.00035172814	-0.00017400036	-0.00042846883	5.929235e-05	0.0005755481	2.7968059e-05	-0.00047849008	0.00012071935	0.0005422531	0.00042731268	-0.00032192658	-0.00036599874	0.00011832065	0.00030228868	-0.00025460313	9.798387e-07	0.00045493277	-1.8730318e-05	-0.00027806632	-9.4299285e-05	-0.00023485557	0.00017529768	0.00024471185	0.00043722492	-7.371354e-05	-2.3149527e-05	0.00038364783	-3.7535083e-05	0.0003981552	-0.00043455564	0.0002931149	0.00036269164	1.5821968e-05	5.1819952e-05	0.00034243165	-0.00033470773	-4.918421e-05	-8.537453e-05	0.00026410972	-0.00020356503	2.937388e-05	-0.00033619194	-0.0004067976	-0.0002482229	-1.9197101e-05	2.9417493e-05	3.594283e-05	0.00039804698	-0.00013900064	-7.187777e-05	-0.00018189405	-3.0274497e-05	4.9088492e-05	0.00030448067	2.2998554e-05	-0.0006906289	-0.00022792406	6.0351762e-05	-0.00015379177	-1.9822048e-05	-0.00027637708	0.00038327655
Von Mises–Fisher distribution_27	-0.00039469122	0.0015697511	-3.5022083e-05	-0.0001706314	-0.0015700537	-0.001385525	-0.00060759054	0.0016443873	-0.0014765783	-0.0005538753	0.0011003304	0.0010335972	0.00053935044	-0.0015677422	0.0011747777	0.00039687078	0.0013742698	-0.0016476862	-1.6971408e-05	-0.001037654	-0.00067438284	-0.0011732831	0.001133687	0.00046466073	0.0016575375	-0.0005432503	-4.2462332e-05	-0.0007618023	0.000497027	0.00032087445	-0.001557093	0.0004366859	-0.0013662534	-0.00127154	0.001519645	0.00035952643	-0.00060853834	0.00032990842	-0.00042870568	0.0011514141	5.3772837e-05	-0.0013212858	-0.0014822427	-0.0007981876	0.00010899657	0.0012179754	0.0004709546	-0.0013300893	-0.0015918188	-0.00030679756	4.074823e-05	-0.00096975436	0.00058543356	-0.0015810105	0.001167049	0.0008019324	0.0011397935	0.001280523	-0.0011527893	0.0011032701	0.00022674145	-0.0009841224	-0.00035399687	-2.516337e-05	-4.171577e-05	-0.0012799249	0.0015817909	0.0014277962	0.0005504826	-0.00033783368	0.0007179603	0.0007910865	9.567583e-05	-0.00014748622	-0.0015565847	-0.0009991209	0.001436785	-0.00014618912	-0.001270317	-0.00067732163	0.00017138422	-0.00016285611	-3.4142296e-05	-0.00062173343	0.0011271536	-8.6980726e-05	0.00075875566	-0.00065324124	0.0010188529	-0.0005876254	-0.0012122972	0.00066810136	0.00038730714	0.0013267531	-0.0009607315	0.00023404375	0.0007644424	-0.0006050448	-0.00016092062	2.0282636e-05	0.00051100436	-0.0010388148	-0.00033058936	-0.0011526485	0.000340107	0.0012086495	-0.000434844	0.00051150523	-0.0009216346	-0.00069624337	-0.00017842092	-0.00062226923	6.5635584e-05	0.00029777735	0.0013638219	-0.001377841	-0.0007501298	0.00065623986	-5.5045337e-05	0.0012145201	0.0012341547	-0.0015349176	-0.0014218211	-7.126441e-05	-0.0014316856	-0.0015159759	0.0011507055	-0.0006089416	0.00053429283	-0.00020201536	0.0015551985	-0.0014470929	-0.0014529924	0.0005169826	-0.0013664324	-0.0016267749	0.0012770304	0.0013364409	-0.0015385572	-0.001640438	0.00023010274	-0.00080729363	6.863779e-05	-0.0013395646	-0.00016086518	0.00060377555	0.00039789674	0.001269768	-0.0010728285	-0.00089891866	0.0006589381	-0.00037074604	-0.00050503376	0.0014409116	1.8784318e-05	-0.0013837984	0.0009176715	0.00040411265	-0.00033160407	0.0011382633	0.0003033301	0.00040457267	-0.0015650891	0.00055755576	-0.00015849216	-0.0005473428	0.0002546625	0.0016342718	-0.0012978533	-0.00051437994	-4.5357785e-05	-0.00035671028	0.0013449084	0.001101732	0.00018648985	0.0008363167	-0.0010107462	-0.001025984	0.00038983588	0.0010269127	0.00055888295	-0.0013198784	0.0012413429	-0.0010994838	-0.0003188659	-0.00022613796	0.0006310553	-0.0012822904	0.0005937887	0.0007772271	0.0006961962	0.0008789158	0.00052767555	-0.001513114	-0.00051476026	0.0009868	-0.0014706713	0.00081377814	0.0007034877	0.0015954822	0.00015787658	-0.00037289815	-0.00059225754	0.00083261804	0.0013442689	-0.0015980582	0.0010590723	-0.0010787873	0.0013972601	0.00018374599	-0.0009370954	-0.0011050004	-0.001104494	-4.433382e-05	-1.6020305e-06	-0.00053187873	-0.00047108106	-0.00021322136	0.00076357037	-0.0005679658	-0.0004387066	0.0007771515	3.6474063e-05	-0.0013674079	0.0006718658	0.0011201076	-0.0008381614	-0.0009839773	0.0008273453	-0.0003546445	0.00045138045	-0.0010773898	0.0007594362	0.0009050958	0.0008483448	0.0006636428	-0.0010384973	-0.0008496116	0.0016574352	-0.0015160204	0.0015928318	0.00095152954	0.00044462451	6.711802e-05	0.00153531	-0.0009626866	0.00034906488	-0.00095517014	-0.0011433848	0.0011392249	-0.00041082557	0.00074811827	0.0005857668	0.0014230566	-7.5699434e-05	0.0005850267	0.00080607727	-0.001549616	-0.00061032234	0.0012330317	-0.0014716258	0.0010063184	0.0016046107	-0.00072752417	0.0012239713	-0.0003900506	-0.00017582701	-0.0013522352	0.00020869858	-0.00063191436	-0.0012975268	0.001605114	-0.0003366111	0.00023100768	-0.0006953407	0.0012703728	0.0002761082	0.0007091621	-0.0012967103	0.0016291426	-0.0014799939	-0.000562766	0.00045919933	-0.0014368308	0.00039856136	-0.00016648481	-0.0001574266	0.00016391336	0.00028530954	0.00015473529	-0.0015835759	-0.0012630958	0.0013030557	-0.0015475036	-0.0003446825	-4.8086837e-05	0.00031633393	-0.0010696386	-0.0014395443	-0.0005880949
Von Mises–Fisher distribution_28	-0.00018087537	7.664486e-05	-0.00038991458	-0.00043965515	0.0007259761	8.60472e-05	-0.00026614117	0.00030124953	-4.2644315e-05	2.3554248e-05	0.00016899208	0.0001582262	0.0005529513	0.00018925853	0.00046343365	0.00034270846	0.00040135346	-0.0005688949	0.00016224335	-0.000383033	0.00011105486	0.00045076682	0.0006048776	4.7323887e-05	-0.00032251037	1.2706024e-06	-0.00013858257	4.5315337e-05	1.1418088e-05	-0.00040524037	-0.00033500436	0.00030280987	0.00010918399	1.6058526e-05	0.000269209	-0.00019135613	0.0003556673	-0.00049276144	0.00020362696	-8.9797e-05	-0.00012890798	-0.00016529251	-0.00025256324	2.980866e-05	0.0005662318	-0.0002958344	-0.00031561535	-0.00022558506	0.00023914957	-5.6792484e-05	-7.209541e-05	-0.00078282895	-0.00040935204	-0.00027785887	-0.00042615065	-0.00023070627	-0.0007606994	0.00024987262	-0.00029502655	-0.00017315969	0.0005401662	0.0002844482	0.00020804306	-0.00020183247	0.00027827313	0.0004314741	0.00040845203	0.0007652966	0.00044250672	-0.0004218079	0.00012139337	-0.0008358762	0.00020906427	0.000117572796	0.00013934728	0.00029910807	0.0004413103	0.00026302243	2.4238014e-05	0.0001312513	-0.000131987	0.0001015597	0.0008889221	0.00019975	0.00030697594	-0.00023492359	0.0004214015	-3.580696e-05	0.00020702464	7.698768e-05	-0.00053802074	0.00045483586	6.528405e-05	4.9686885e-05	0.00015348768	0.00049714325	-8.23348e-05	3.333898e-05	0.00027743133	0.0005338994	6.712557e-05	0.00012680054	0.0003453077	-0.00035752062	7.6038574e-05	-8.8792825e-05	0.0002866996	-0.0005100498	-0.00014407723	-0.00020478085	0.00013812755	-6.33914e-05	0.000399944	0.00023407968	0.00012867266	0.00029737962	0.00025532438	0.00024377539	0.00027689245	-0.00016769391	0.00044673498	0.00032010875	-0.00015569615	0.000105617306	-0.0003775714	0.0001109416	-0.00031410978	0.0004348912	-0.00025241377	-0.00035807202	-3.5487446e-05	-0.00040211916	0.00021791583	-0.0001621699	-0.00020522535	0.000240912	0.00034483252	0.00036876686	0.00033537528	-1.2861173e-05	4.301505e-05	-7.573695e-05	-0.0003575305	0.0001493138	-0.00026222417	8.312362e-05	-0.00011409701	-0.00019154578	-0.0007285953	-0.00023253617	-0.00067342375	0.00019449502	-0.00024604984	-1.4965873e-05	-0.0005588873	9.257971e-05	-2.903427e-05	-0.00035355418	0.00023308318	0.00011331467	0.00025234857	-2.4217414e-05	-0.00019376048	4.8829792e-05	-0.00020299434	-2.7805721e-05	-0.0002562504	0.00014333268	0.00039372576	0.00018699489	-0.00015249793	3.472714e-05	-0.00031092245	1.1455151e-05	-0.0001622739	-0.0002689798	0.00020869767	-0.00018329332	-0.00025258784	-7.92551e-05	-0.00079411245	0.0002232908	-0.0006658144	-0.0002774778	5.469254e-06	-0.0005262921	0.00041936856	-5.542751e-06	-4.0952025e-05	-0.00024788998	0.00030733613	0.00019069375	8.3857296e-05	-7.675079e-06	-0.00035532383	0.00015691172	0.00045485672	-0.0005372943	-0.00012513905	-0.0005708617	-0.0002918717	-0.0004175859	-0.0002627937	0.00025458788	0.00013339295	-0.00013211211	-6.9476184e-05	-0.000497661	-0.0002371519	3.8657112e-05	-0.00019727585	-6.918211e-05	0.00032351722	-0.00022473422	8.748464e-05	0.00063465803	6.400922e-05	0.00027500818	-0.00029495204	-0.00040393264	-0.00028120153	-0.00013946884	-0.0005634994	-0.0001958846	-4.9633578e-05	0.00029128997	-0.00038483893	3.0735075e-05	0.00058606424	0.00044607665	-4.1478495e-05	-0.0005519447	-0.000111610265	-0.0008244331	-0.00011203609	-0.00033627232	0.0004524111	0.00071947847	-1.72937e-06	0.00016872883	-0.00024788227	-8.5167914e-05	0.00041422786	3.110947e-05	-0.00059954193	0.00050475	0.0006624472	-8.356914e-05	-0.00024795294	-0.0005384035	0.000390226	1.9804405e-05	0.00031988893	-0.00023522836	0.00035890477	-0.00022268588	-0.00037338684	4.822628e-05	-0.00036172022	0.00016313075	8.753937e-05	0.00043843102	-0.00014239685	0.00029626355	0.00092196773	-0.00025032635	0.0004754943	-0.00024320027	0.0005383486	0.0005054431	-0.00014956106	0.00048731515	0.00033888101	-0.0008024148	-4.1486936e-05	-0.0003589548	-3.833889e-05	-0.0003675285	0.00010077191	-0.0007426494	-0.0005179494	-0.000535356	0.00013078228	4.8103976e-07	0.00045200286	0.00041203125	2.8710732e-05	-0.00013507075	-0.00029261492	-0.000356542	-6.381209e-05	0.00019945468	2.9877227e-05	-0.00081200904	-0.00012566592	-0.00030045307	-0.00035664887	-0.00022659708	-0.00035625006	0.000666159
Von Mises–Fisher distribution_29	-0.00024439933	7.799661e-06	-0.00035549514	-0.00026141695	0.00034269015	-3.3003193e-06	-0.00012156337	0.00067055266	-0.00015863353	-4.0826577e-05	0.00030216406	0.00023538187	0.0005310471	-9.8422744e-05	0.0003377739	0.00026915924	0.0005065827	-0.0005503755	-0.00016298064	-0.00036386543	0.00014646552	7.0164526e-05	0.00046063206	2.0673026e-05	-5.6320816e-05	-0.00010972002	0.00029230246	-6.5629254e-05	2.8628621e-05	-0.0005734477	-0.00021534575	0.00026333836	-0.00015238875	-0.00023659223	0.00045891947	-7.0756914e-06	0.00017040934	-0.0006372557	8.915716e-05	3.5017567e-06	-0.00010902302	-0.00028805205	-0.00053375826	-8.097549e-05	0.0006069095	-0.00010692276	-0.00019463278	-0.00023555575	0.00011679146	3.136822e-06	-0.0001719496	-0.00061538344	-0.0005061039	-0.00047633937	-0.00013569566	-0.0003485298	-0.00048177072	0.00035547817	-0.0003857452	-0.00019115029	0.00040311328	0.0001383441	0.00038067045	-0.00011712774	5.3520987e-05	0.00034512646	0.00018606259	0.00095167226	0.0005267195	-0.00028696537	-8.406152e-05	-0.0004698929	0.00020639952	-7.310882e-05	-0.000105337625	6.880048e-05	0.00042529602	0.00031832	6.170433e-05	-4.0940835e-05	-0.0001249646	0.00012847403	0.00075259944	0.0003762207	0.0002170747	-0.00011354888	0.00034060498	-0.000119353586	0.00015428747	-0.00022936561	-0.0007240989	0.00045341018	0.0002824802	5.398356e-05	0.00011527116	0.0003167561	9.399894e-05	5.163621e-05	0.00010433264	0.00049104716	8.20255e-05	-2.9296856e-05	1.8676343e-05	-0.00034237598	0.00022751385	-0.0001832369	0.0001147476	-0.00030960966	-0.00019448351	-9.512037e-05	0.00031626568	-0.00013682495	0.0002554268	0.00012822202	0.0001642485	0.00018938717	0.00025117825	0.00030626394	0.0001406398	4.4649383e-05	0.0005860057	8.135784e-05	-5.4855413e-05	0.00012198451	-0.00039027998	-0.000115262796	-8.922824e-05	0.00039738562	-0.00034253663	-0.0002870467	-6.284292e-05	-0.00055264396	-3.5342513e-05	-2.0673951e-05	-0.00027598863	6.228938e-05	0.00038189912	0.00054738676	0.00014002045	-0.00018246686	0.00033388264	-0.0003429879	-0.00033333412	-0.00020185091	-0.000385297	0.00017023717	-0.00014591917	-9.25884e-05	-0.0004976132	-0.0006585419	-0.00022343942	2.9211045e-05	-0.00025381756	0.00037337316	-0.00054392143	-5.228711e-05	0.00021719656	-0.00028206312	0.00019544076	0.00011680326	0.00017279574	-4.2488505e-06	-0.0001080182	4.5952926e-05	-0.00031713874	0.000144708	-0.00027269463	0.0001862688	0.00021645459	-2.1574528e-05	-0.000328165	4.342693e-05	-0.00035542835	-0.00028507054	-5.4411535e-06	-0.00032236413	0.00012934586	-0.00017970771	-0.00028199874	0.00024506374	-0.0007618763	3.124557e-05	-0.0005307146	-0.0005883025	2.1504718e-06	-0.0005854109	0.00050513423	5.0909875e-05	9.084932e-05	-0.00017583564	0.00031447396	0.00030731934	0.00020904049	-0.0001726212	-0.00032769842	6.316266e-05	0.00019675466	-0.0001553956	-0.00030626732	-0.00051741133	-0.00016019044	-0.0005315182	-0.00027898452	6.066694e-05	6.59997e-05	-0.00035537445	-0.00019532003	-0.00040246427	-4.2280357e-05	0.00024644868	-0.00015320409	-0.00015658789	0.00029039002	-8.86032e-05	0.00024377205	0.0004763535	0.00012215973	0.0002042501	-0.00028472213	-0.00043766695	-0.00028777905	0.00012879528	-0.00021225399	-0.0001429784	0.00011406906	0.0005220582	-0.00032450524	-0.00010802756	0.0005407338	0.00045845858	-0.00028322797	-0.00046468407	-3.1167616e-05	-0.0006542427	-5.584387e-05	-0.00039868688	0.00032772377	0.0004759202	0.00012454457	-0.00027745977	-8.314493e-05	-0.00015992338	0.00027566354	4.0198604e-05	-0.00024773923	0.00025256586	0.00048427744	-8.529431e-05	-0.0003012474	-0.0003345186	0.00017357022	4.634206e-05	0.00021803183	-3.797546e-05	0.0002685833	-3.7763624e-05	-0.00019922818	-7.864333e-05	-0.00024189788	0.0004022595	-0.00015579883	0.00047981335	0.00020124186	5.3146847e-05	0.00093418703	-9.344398e-05	0.00039131206	-0.0002765208	0.0003967991	0.00047332858	-0.0001214563	0.00033936586	0.0005347664	-0.00049719284	-8.5969106e-05	-2.7758633e-05	6.124054e-05	-0.00037681576	0.00017568718	-0.00065309263	-0.0003887994	-0.0004491292	-5.0007446e-05	0.00010043226	0.00042793123	0.00054497056	-0.00010284946	0.00016047274	-0.00028789384	-0.0001706443	-0.0002183171	0.00037157346	0.0001987023	-0.0006297489	8.09841e-06	-0.00018769126	-0.00018734302	3.3108197e-05	-0.00025702978	0.0005603934
Von Mises–Fisher distribution_30	-0.00020184412	-9.387522e-05	-0.0003721327	-0.00017349386	0.00038412202	-9.9350254e-05	-6.4990745e-06	0.0006691176	-0.00014392314	-0.000108441185	0.00036217843	0.0002443324	0.0005289471	-0.00022654177	0.0003076547	0.00028839128	0.00037114767	-0.00056486117	-0.0002184967	-0.00029306402	0.00013786393	5.659135e-05	0.00031438688	8.29489e-06	-9.7858414e-05	-0.000289478	0.00035240117	1.4089456e-05	0.00016743498	-0.0005683533	-0.00017999181	0.0003132382	-1.9269097e-05	-0.0002046699	0.00045237757	-9.433438e-05	0.00033712768	-0.00059305335	4.5588215e-05	2.7885648e-05	-4.9406266e-05	-0.00024407756	-0.00049107417	2.560156e-05	0.00063085824	-0.00013353387	-0.00027646223	-0.00021195888	0.00013061777	2.9467094e-06	-0.00015924526	-0.0006228997	-0.0005560445	-0.00043668484	-0.00024178065	-0.00040402883	-0.00039599065	0.00027893408	-0.00031395885	-0.00011526621	0.0003905001	7.586638e-05	0.00038301316	-0.00030242142	-5.243932e-05	0.00018174837	0.00017908937	0.0009277074	0.00039249935	-0.00013640539	-0.00023487433	-0.0002765088	0.00012071183	-8.7556815e-05	-0.0001496046	7.569815e-05	0.00035526676	0.00034537673	2.8427898e-05	-6.7595545e-05	-8.081732e-05	0.00021195861	0.00073582184	0.00040269387	9.752706e-05	-0.00021191388	0.0003871091	-1.5954189e-05	0.000100110476	-0.00021323064	-0.00077576726	0.00040093044	0.0003760043	-1.1409719e-05	0.00019840738	0.00019093665	0.00012723418	0.00010880054	-3.5831396e-05	0.00052814407	4.6448462e-05	-9.039075e-05	-0.0001406998	-0.00038672565	0.0003452304	-0.00010319763	-6.9763764e-06	-0.00014999286	-7.3353774e-05	8.3706975e-05	0.00033887246	-0.000111538786	0.00018726589	6.381963e-05	0.00027005142	0.00022644606	0.00037377694	0.00031790684	2.1915823e-05	-8.325299e-05	0.0006721403	0.00011146033	-4.9992574e-05	0.00020642576	-0.0003828369	-8.9348505e-05	-6.499667e-05	0.0002525985	-0.0002783813	-0.00025291814	-0.00015292746	-0.00060090906	-3.2291013e-05	-0.00011949353	-0.00019835365	-3.598024e-05	0.00040302554	0.0005701059	0.000173649	-0.00022866666	0.00034178043	-0.00021144381	-0.00030753983	-0.0002597508	-0.00041161542	7.450831e-05	-0.00023155799	-5.879437e-05	-0.00032296107	-0.00071187253	-8.174105e-05	5.9957347e-05	-0.00028896384	0.00038731663	-0.00045473067	6.0578717e-05	0.00010552481	-0.00018147829	6.8657486e-05	5.594308e-05	0.00016471032	6.555694e-05	-0.00013027916	4.6910307e-05	-0.0003095084	0.00017796144	-0.0002888362	0.0002853353	0.0003161809	-0.0001309242	-0.00037113114	6.5344655e-05	-0.00025018488	-0.0004204509	2.041796e-05	-0.000267824	3.7535267e-06	-0.00011435478	-0.00011749271	0.00031940793	-0.00070283463	0.00011150747	-0.0003735855	-0.0006587171	-9.5630305e-05	-0.0006524889	0.0004621467	0.000105831336	0.00022889847	-7.537344e-05	0.0002452908	0.00014343622	0.0001363404	-0.00020988163	-0.00044679237	0.00020558517	0.00013229743	-9.934723e-06	-0.00032454546	-0.00053782645	-8.84369e-05	-0.0005891806	-0.00038120974	6.892475e-05	-0.000115233306	-0.00024803836	-0.00025699363	-0.00045204218	8.566395e-05	8.965939e-05	-8.626269e-05	-0.00014087257	0.00014909971	-4.630871e-05	0.0002494988	0.00035939473	0.00013572832	3.518258e-05	-0.00030776684	-0.000450705	-0.00020456909	0.00010967376	-0.000119617696	-2.4528994e-05	9.670454e-05	0.0005023691	-0.00026877914	4.6798928e-06	0.00043788587	0.00037349132	-0.00039180214	-0.0005496719	-5.017703e-05	-0.00058580417	-8.0703874e-05	-0.00047493365	0.00024334744	0.00039204842	0.00017515178	-0.00021972903	-1.6009399e-05	-0.0001969903	0.0002861205	-8.661748e-05	-0.00019137551	0.00035306366	0.0003896361	7.4772266e-05	-0.00020191594	-0.00031138645	0.0001223551	-2.1219374e-05	0.00010861133	1.5934134e-05	0.00036866064	-3.3493587e-05	-0.00023235354	-5.248824e-05	-0.00019240263	0.00023699504	-9.3899245e-05	0.0005334478	0.0003156316	-0.0001583723	0.0008952943	-1.095727e-05	0.00033216528	-0.00029708518	0.00049781374	0.0004543448	-8.115982e-05	0.0001493644	0.0005786579	-0.00039938805	-9.841982e-05	0.00011373045	-4.5016888e-05	-0.00034836735	0.0003155291	-0.0005397824	-0.0003732279	-0.00033354395	-0.00016056225	7.112315e-05	0.00036260812	0.0006041528	-1.5050505e-05	0.00012791301	-0.00023031964	-3.7857624e-06	-0.00026637397	0.0003303049	7.486812e-05	-0.0005831253	9.8868375e-05	-0.00014480775	-0.00015971575	0.00016052632	-0.00016999141	0.00060328835
Von Mises–Fisher distribution_31	-0.00017409144	-2.1781656e-05	-0.00047176558	-0.00033730295	0.000834293	-1.270812e-05	-0.00012670456	8.233575e-05	0.00018569095	0.00013609129	0.000110002664	-4.3547552e-05	0.0006102462	0.00026187798	0.0003824517	0.00031239685	0.00046209476	-0.00031139344	0.00016313986	-0.00032608226	0.00011514822	0.00045100946	0.0002848529	-9.360584e-05	-0.00026388402	7.796195e-05	-0.0002517876	0.0001547955	-9.088711e-05	-0.00017799548	-0.0002112793	0.00016073792	4.7637874e-05	0.00032121036	0.00024308977	-0.00017421381	0.00035205996	-0.00035142002	8.926391e-06	-0.00019969635	-4.4616834e-05	-0.0002665598	-8.657003e-05	0.00012488262	0.00040292024	-0.0005187516	-0.00038077252	-0.00019111944	0.00017670915	4.7015834e-05	0.00010199745	-0.00069680746	-0.0004200563	-0.0004394012	-0.00063588365	-0.00023253619	-0.0008416291	0.0003397769	-0.00027845267	-0.0002792876	0.00046334614	0.00025256968	0.00025909516	-0.00033413002	0.00015661426	0.0005778457	0.00020464107	0.0003826486	0.00031211047	-0.0004269257	0.00014143648	-0.00060537324	0.00023332407	-0.00029350666	-0.00012799306	0.00034555982	0.0005156392	0.00016571944	1.0352949e-05	0.00019370251	-0.00020311926	0.00022913393	0.0008388262	0.00045382962	0.00017367021	-0.0003595292	0.0004032491	-7.732353e-05	-0.00013024715	9.100153e-06	-0.0005531968	0.00028302858	8.8204935e-05	-0.00019056785	-2.845277e-05	0.00037200638	-0.00012923869	-3.184069e-05	0.00010219803	0.0005425956	8.4070125e-05	0.00019228595	0.0003005623	-0.00031244985	0.00027276232	-3.9242357e-05	0.0002989379	-0.00059014076	-0.0001258374	-2.8770299e-05	0.00020208853	-0.00022273698	0.00035984427	2.8329046e-05	0.00015944705	0.00036465685	0.00020505564	-1.0733329e-05	0.0003654325	-0.0003418945	0.00043746905	0.00021429101	-3.3495096e-05	5.311746e-05	-0.00040108914	8.784684e-05	-0.00036595715	0.00045937908	-0.00029742514	-0.00034880437	4.445892e-06	-0.00033761773	8.479871e-05	-0.00022885097	-0.00011756142	0.00022207302	0.0003133171	0.00035048023	0.00023337538	0.0001281248	0.0001637902	-0.00018500381	-0.0001685526	0.00015118452	-0.000163933	-6.734375e-05	-0.0002055747	-0.00034235435	-0.0006386409	-0.0002405397	-0.00064948783	-3.5971945e-05	-4.442225e-06	-0.00018764018	-0.00040346276	-1.2398818e-05	6.3365424e-06	-0.0005342578	0.00017439688	-1.98343e-05	0.00026744578	-6.240116e-05	-0.00040120265	-5.3901713e-05	-8.29897e-05	-0.00017886143	-0.00021479427	1.6986276e-05	0.00047316964	0.00019046539	3.0107262e-06	-6.540247e-05	-0.00041562453	-7.3921015e-05	-0.00030625053	-0.00047029566	0.00019138631	-0.00031645197	-0.00021062436	-0.00017072135	-0.00060236524	0.00033571798	-0.0005537355	-0.00035981706	0.0002728669	-0.00056657975	4.1942294e-05	8.082927e-05	-0.000313415	-0.0002992318	0.0004099994	0.000116262185	0.00022706127	0.00013844304	-0.00049887714	0.0002843942	0.00039154978	-0.00046281895	-0.00025456146	-0.00054952013	-0.00035982553	-0.00048792575	7.946947e-05	0.00022607755	5.6696375e-05	-0.00013768647	-0.00021107432	-0.0003256798	-0.00024915513	-0.00028187217	-0.00019670557	7.7004544e-05	0.00013742204	-0.0001876348	0.00014163599	0.00058192795	0.00022877433	0.00012071001	-0.00049190136	-0.00019061536	-9.244574e-05	-0.00018189616	-0.00065333274	-0.00010919374	-2.4917106e-05	0.00010988213	-0.00029106817	-7.2954026e-05	0.0005071255	0.00026513424	-0.00016862992	-0.00045548563	-0.00024374158	-0.00071994995	-7.841368e-06	-0.00038446358	0.00027101173	0.0007201554	-0.00013947191	0.00020310967	-0.0002054895	-4.7124908e-05	0.0002840862	4.0757874e-05	-0.000770585	0.0003909056	0.0005114739	0.00023736236	-2.5139043e-05	-0.00056097057	0.00041058502	-5.5881115e-05	0.00028276353	-0.00019021874	0.00034544012	-0.00038944682	-6.670358e-05	0.00031808624	-0.00041999356	-0.00016065889	0.00013166161	0.00046724066	-2.3428503e-05	0.00019153838	0.00089413294	-0.00017498556	0.0004074474	-0.00025775758	0.00024726705	0.00027584445	-6.956482e-05	0.00028287506	0.00023006288	-0.0007200598	0.0002212294	-0.00044741313	2.1802798e-05	-0.00046377582	0.00020468171	-0.00073345273	-0.00025912694	-0.00037912015	0.00021601826	4.9613198e-05	0.00030377248	0.00027280726	-6.3671265e-05	7.1945656e-06	-0.00033552537	-0.00036067137	0.0001884701	0.0002852948	9.612761e-06	-0.00070873875	-0.0001417773	-0.00035136737	-0.00053398596	-4.9872448e-05	-0.00034511508	0.0005026971
Von Mises–Fisher distribution_32	-0.000114271206	-0.00011564738	-0.0003215248	-0.00039015853	0.00074259413	-5.5828452e-05	0.0003147138	6.144146e-05	-0.00018645472	0.00016262222	0.00018472933	0.00017077962	0.00033340754	-0.00019589478	0.0002725971	0.0003989785	0.00012308129	-2.1908843e-05	0.00032419947	-0.00019331802	-8.6761785e-05	0.00023681138	-0.000110688256	-2.086863e-05	-0.00013347813	-0.0004501247	0.00023147973	2.712635e-05	6.550931e-05	-0.000170843	-0.00016026784	-0.00013303269	9.171384e-05	0.00011569215	0.00049474114	-0.00032346154	0.00044835673	-0.00014477954	0.00013934162	0.00033957613	0.00010251269	-0.00011742204	0.00017406876	0.00029176794	0.0003987457	-0.00024075463	-0.00041586702	-0.00011605173	0.00022336074	2.2613633e-05	0.00020896207	-0.00047559472	-0.00027339428	-0.00034991844	-4.2958032e-05	-0.00014795891	-0.0007147242	0.00027585652	-0.00012987522	0.00020660236	0.00036186152	0.00026139242	0.000100623394	-0.00062395976	0.0003714538	0.00015708411	4.1875363e-05	0.000106817664	0.00013725461	-0.000100807454	2.1275619e-05	-0.0003805867	7.447271e-06	-0.00035574136	-0.00012587193	0.00037052776	0.00031068575	-0.00017904022	-0.00040234296	6.950325e-05	-5.267901e-05	0.0007716512	0.0006000762	0.00019894078	-7.075118e-05	-0.0006446483	0.00022640049	-5.2713385e-05	-5.5877303e-05	6.81357e-05	-0.0006489135	-8.9341454e-05	0.00026237027	-0.00016293947	0.00019818443	0.00018270103	-0.0001401852	8.0646954e-05	-0.00033824262	0.00046679913	-1.1761522e-05	5.0428745e-05	7.2312905e-05	-0.0003936449	0.0003255903	0.00014478431	0.00019155143	-0.000115341085	0.00025820124	0.00017868595	0.00041354453	8.6033026e-05	-6.383108e-07	-0.00013313207	8.941145e-05	0.00015646422	0.000150518	0.00016061931	0.00019697213	-0.00023246149	0.00067237887	0.00014478879	-0.00015377974	0.00019624262	-0.00021882585	0.00010848263	-0.0005539594	0.00020307659	-6.218199e-05	6.563551e-05	-6.285469e-05	-0.00014106679	0.00010868177	-0.00029473624	0.00010209285	7.935252e-05	0.0004976499	0.00026464395	0.000107403524	-4.0870018e-05	0.00036123572	3.1230014e-05	-7.72054e-05	-1.5557824e-05	-0.00026070754	5.753737e-05	-5.234758e-05	2.1619639e-05	-0.00039831412	-0.00013288368	-0.00037667368	-6.852729e-05	-0.00021273152	-6.1677194e-05	-0.0005359537	-0.00014190713	-0.00034767677	-8.181263e-05	-0.00012272393	0.00022801633	8.49992e-05	0.00036270815	-0.0003659059	0.00022720134	-8.6933236e-05	6.89141e-06	0.00014333762	0.00029898004	0.00037462646	-0.00011976672	0.00017370335	-1.4474776e-05	-0.00012319788	-0.0002630412	9.619606e-07	-0.00010594069	8.8484114e-05	-6.718385e-05	-1.9755903e-06	-0.00017485555	-0.00045050544	0.00043439004	-0.00014158578	-5.471784e-05	2.72196e-05	-0.0007280189	0.00038956615	0.00016608613	-0.00025447612	3.8556773e-05	0.00021369818	0.00013024788	-1.5770407e-05	-0.00014634703	-0.00041726517	0.00018993745	0.0003869189	-0.00014550315	-0.00015262082	-0.00040688593	-0.000118490156	-0.0004284818	2.2266317e-05	0.00011900643	-0.00028490616	-3.662295e-05	-0.00035511376	-0.00033509935	5.5809356e-05	-0.00033831628	-0.00010109263	0.00041678757	-0.00019526116	-0.00014619097	-3.280199e-05	0.00036042498	6.538612e-05	-6.923029e-05	-7.603726e-05	-0.00037529686	-0.0001487723	-0.00014741322	-0.00010683112	0.00025062196	-0.00020256748	5.7434518e-05	-0.00023295844	0.00018178743	0.00052363507	0.00013629218	-0.00033044987	-0.00017040048	-0.0002810474	-0.00068372686	-6.0990675e-05	-0.00034553118	0.00011389359	0.00049885124	0.0001834321	3.0112134e-05	-0.00018208653	0.00027634794	0.00036808517	-0.0003199954	-0.00042238494	0.00024251932	-3.1606854e-05	0.000330989	-5.7801783e-05	-0.000476592	0.00038353878	-8.34452e-05	0.00022369898	-8.3488856e-05	0.00015901447	-0.00032963487	-0.0001331376	0.00027095008	-0.0004381744	-0.0001065011	0.00014058614	0.0005499878	-0.00021387392	-4.5193763e-05	0.00084793224	-1.893292e-05	0.00020993485	-0.0002796582	0.000266597	0.0004027828	2.849327e-05	0.00020234917	0.00024328793	-0.0005160782	7.346882e-05	-2.4721598e-05	-0.00019249985	-7.994734e-05	0.0002513141	-0.0005798316	-0.00029358224	-0.00030809685	-0.000366409	-2.6889998e-05	7.917421e-05	0.00042687127	0.00010288922	-0.0004134841	-0.00037098664	2.914527e-05	0.000222185	0.0003157625	-0.00017101725	-0.00023012709	1.0131686e-05	-0.0002333742	-0.0003553451	-0.0001634886	-0.00037118475	0.00044644793
Von Mises–Fisher distribution_33	0.00022208186	-0.0007963862	0.0001255805	-0.00052692863	0.00031868042	0.00012784716	0.00066154136	0.00044872248	-0.00040662955	-0.00048220818	0.00013451176	0.00034494564	0.0003768806	-0.0007470283	-0.00019292737	-0.00062958215	5.0613286e-05	9.510569e-05	-0.00018988638	0.00014622418	-0.0008961518	0.00037918644	0.0003054366	0.0004577713	4.158239e-05	-0.00043281456	0.0008447054	-0.00023077123	0.00032007336	-3.086997e-05	-0.00011959536	-0.00041097385	-6.879693e-05	-0.00017341433	0.00063012505	-2.5385181e-05	-8.084144e-05	-0.0009571027	0.00057895633	0.0007297109	0.00010654224	-2.1943788e-05	6.50043e-05	0.0001740912	-0.000103471546	-2.6695163e-05	-0.00025150733	0.00020264085	-0.00024840405	-0.0002166571	-0.00022675916	-0.00022406681	-0.00040979334	-0.0003294213	0.00017090685	-0.00085408305	2.1600052e-05	-0.00011252398	-0.0007027985	0.00040276643	-0.0003155481	0.0005283859	0.00038608824	5.086813e-05	0.00026307092	-0.00034214044	0.0005735889	-0.00026583934	0.00029312528	0.0006875907	-0.0006228581	0.00013306609	-0.00015403898	-0.0004850577	1.7877825e-05	-7.4708776e-05	0.00043355473	-0.00022706462	-0.00017221773	-0.000103094775	9.729581e-05	-0.00018873585	0.00047833487	0.00017167546	-0.00087878294	-0.000397174	0.00033643618	6.32631e-05	-0.0005428711	0.00025446826	-0.00032006958	-3.3711745e-05	0.0004067466	9.912216e-05	-0.0001615753	7.47741e-05	-6.752205e-05	0.00029336984	-0.0001736906	-0.0006338237	-0.00022521017	0.0001388827	-0.0004799713	0.00035750525	0.0011310019	0.0005178654	0.00010630229	0.00083112624	-0.00022145666	0.00043729824	-0.000102656486	0.00041540485	0.00014569653	-0.00017550496	9.9739445e-05	8.90546e-05	0.00028317393	-9.177039e-05	-0.00025530043	-0.00038954156	0.00016775956	0.00013073403	-0.00015570175	-0.0001441662	-0.00080022623	-8.470005e-05	-0.0005153808	0.00061911007	-0.00020180021	-0.0006814421	-0.00014111678	0.0003818366	-0.00030295778	-0.00034849823	3.6353602e-05	1.9655126e-05	0.00064011704	0.00020928076	0.0005409469	-0.0004042588	7.097395e-05	-0.00028861276	8.8159155e-05	-0.00048557325	-5.6146448e-05	-0.0003188189	0.00013460594	-0.00013262415	-6.720172e-05	-0.00032026938	0.00041157528	-0.00010849522	-0.0002040856	-0.00068602856	-0.00093988905	-0.000101046404	7.355683e-05	0.00021352545	-0.00069226	0.0003246265	-0.000950903	0.000746199	6.994184e-05	0.00097403926	0.0004342679	0.00042264172	-9.8109515e-05	-6.5494256e-05	0.0005068455	-0.00029144133	0.0006214181	0.0003621578	-0.00018396703	-0.00028677104	0.0005945213	-3.832544e-06	-0.0002986327	-5.351408e-05	0.000331327	0.0003828471	-0.00064790936	-6.448536e-05	-0.0006981368	-0.00010828713	-0.0002283896	3.8273818e-05	-0.00011438003	-6.702919e-05	0.00051915477	0.00024217828	7.3475894e-05	-0.00023465522	-0.0001071751	-0.0006710208	-0.0006050698	0.0004379633	-0.000323067	-0.0003598588	-0.0004889152	-0.00017897369	0.0005840511	-0.00013494649	-0.00041154996	0.00021504592	0.000122874	0.00046146446	-0.00042777206	0.00011774323	0.00053840235	-0.00050884346	-0.00032335988	0.0004337312	0.00035099886	0.00026968317	0.00017383548	0.00027404347	0.0005948447	0.00025598283	0.00032573962	-0.00030071734	-0.00043811492	-0.00039965552	-0.00057452783	0.00012860102	0.0006261457	0.00014125844	6.1809544e-05	0.0004169102	4.5417273e-05	-0.00044611064	-0.00019827802	-0.00046597212	-0.00043609506	4.2610765e-05	-2.8074486e-05	-7.555892e-05	0.00026377765	-6.260672e-05	-3.439548e-05	0.0003653992	0.00074080465	0.00032894046	-0.00048486036	-0.0009954812	-0.00051409856	0.00014810872	-0.0002839837	-9.1439164e-05	0.00012124928	5.973887e-05	0.00030437636	8.696019e-05	-0.00053410383	-0.0006479666	0.00030552983	-2.311741e-05	-0.0003952592	-9.669785e-05	-0.0002854613	3.5699544e-05	-0.0006842879	0.0006762853	-0.00024314744	-0.00046715443	0.00023079486	-0.00032784464	-0.00048650306	-0.00016065099	0.0005019723	8.016964e-05	-9.74771e-05	-0.00011695642	-3.914447e-05	0.00031094835	-6.16802e-05	-0.00022395868	-0.00034476398	-0.0003960721	0.00053280464	1.9890862e-05	-0.00037548717	0.0001327993	-0.00068910763	-0.00014185405	0.0006934069	0.00022413488	0.00040640886	0.00046102624	-0.0001708938	0.0006593273	-0.00011817484	-0.00012322677	-0.00048119033	0.00029801496	0.0006815384	-0.000360025	-0.00046613082	0.00014996172	-0.00034223744	0.00047100155
Von Mises–Fisher distribution_34	0.0014823282	-0.0016516839	-0.0006735773	-0.0014143969	0.0006651117	-0.0009004276	0.0014221673	-0.0012413679	1.5053161e-05	0.00079393515	0.0008459942	0.0007290477	0.0008745637	-0.0008283577	0.00015473927	-0.00027584512	-0.00022814149	0.00093944685	0.0011354744	-0.0014660127	0.00020823177	-0.0014424773	-0.00048863766	0.0008988842	-0.00038092397	-0.00096346304	-0.0011289371	-3.3279783e-05	-0.0005705247	-0.0010779619	0.0011058154	-0.0012535203	0.0013160675	0.0008643695	0.0013100504	-0.0009927533	-8.748564e-05	0.0013708238	0.0007973047	0.0012699123	-0.0010584246	-0.00011724571	-0.0013068942	-0.0007283603	-6.788029e-05	0.00036119277	0.0011203567	-0.0011177137	0.0010490633	0.00027304885	0.001033454	-0.0012612265	-0.00079821807	-0.0012364995	-0.00094094203	-0.0011394058	0.000116221716	-0.0006651392	-0.0005556774	0.00091756484	-0.001098134	-0.0003497518	-0.0011038017	-0.0012006052	0.0006293398	0.000574511	-0.0006861564	-0.0009747477	-0.00038110925	-0.00044689418	-0.00069265015	-0.0003292953	-0.00017823736	0.00043601176	-0.00024924128	0.001147011	0.00057637267	-0.00045015253	-0.0014838172	-0.0016012911	-0.0011756303	0.0015713989	0.0011188707	-0.0016581164	-0.00029658063	0.00076199434	0.0010383757	-0.0005279522	-0.0012966563	5.8710662e-05	0.00043018392	-0.0013467562	-0.0010454421	0.001020161	-0.0013850526	0.00039649248	-0.0016178907	-0.00052612036	-0.0015661591	0.0005098619	0.00052361964	7.331504e-05	-0.0010490284	-9.191488e-06	-0.0005598335	0.0003849445	0.00022603598	-0.0013744042	0.0012429749	0.0011752136	0.0015411961	-0.0004608442	0.0010197584	9.9152705e-05	0.00030214863	-0.0014097764	-0.0008903343	-0.0006391742	0.0009804757	-0.00025925486	0.0014151955	-0.0007528618	-0.0014559333	0.0005308298	0.00046665096	-0.00015232805	-0.0010365839	-0.00050612795	0.0008746585	0.0011172065	-2.5158164e-05	0.0015696569	0.0011477025	0.00031611638	0.0015000292	0.0013636766	0.00100662	0.0007588265	0.0006593409	0.0013081694	-0.0002609962	0.0009824309	-0.00074339815	0.00046929024	-0.00033644476	0.00010752264	0.001534181	0.000293869	0.00055322016	4.0454503e-05	-0.0002631701	0.0010622685	-0.0005073606	-0.00043762373	-0.0006427432	-0.0012459524	-0.0013950958	0.00081680116	0.0003685151	-0.00026443598	0.0014189909	0.001361727	-0.00036848043	-0.00045096033	-8.639619e-05	-0.00122825	0.0013575192	0.00038452083	0.00078555493	-0.0011528982	0.0015117495	0.00097293296	0.0013551031	0.0005087354	9.9721445e-05	0.0016194863	-0.00028626682	0.0009525105	-0.00039611958	0.00093485287	0.00058811024	0.0014787894	0.00032225382	0.0009646771	-0.00072775374	-0.0016473155	0.0012029915	0.0016547189	0.000505884	0.0006847412	-0.00040696163	0.0005060389	-0.0005431601	0.0016026007	-0.00024295792	-0.0013036428	-0.0013228256	-0.00040827965	0.0003164794	0.00010750524	0.0004294442	-0.0010561622	-0.00042035646	0.0016386396	-0.0005007539	-0.00062486087	-0.001337039	-0.0016533316	-0.0010258934	-7.1371585e-05	0.0010183193	-0.0013987967	-0.00071250275	0.00068482925	0.00047155406	-0.00048384094	-3.313026e-05	0.000107302745	0.0015371991	-0.0016183399	-0.0011698566	-0.0009443453	-0.00044313408	0.0014763563	-0.0004992293	0.00028968733	-0.00048238778	-0.0005615294	0.0014749526	0.0016018878	0.0016614497	-0.00070222595	-0.00024299638	-0.00079805066	4.499874e-05	-0.00016950104	0.0013972411	0.0007383591	-0.00074813544	-0.001087926	-0.0009331757	0.00075575843	0.00070494507	-0.0008545508	0.0013952729	0.00064091035	-0.00017817055	0.0001576238	-0.0011357748	0.0010098296	0.0009960925	-0.0013439093	0.0010867082	0.0006265825	-0.0014180773	-0.000981044	-0.00014966681	-0.001455254	-0.0015217477	0.0005648404	-0.0005083903	0.00024792698	-0.0015436868	-9.1383125e-05	0.00012912662	-0.0007314363	0.001161037	0.00029904564	-0.0009887099	0.0007609005	-0.00059024646	-0.00066461734	-0.0011186393	-0.0012903142	-3.1505264e-05	0.00077534595	-0.00065152603	0.00035040168	0.0009947299	0.00033789492	0.0010872317	0.0006174725	-0.0005192497	-0.00046059102	0.00057678454	2.1716555e-06	-0.00054505677	-0.00084158074	-0.00057315023	-0.00041082772	0.0010444389	0.0004549759	-0.00024448274	0.0011573677	-0.00026026476	0.00022317808	-0.0013454458	-0.0010536988	0.0013166948	-0.0009461066
Von Mises–Fisher distribution_35	7.704591e-05	-0.00040603348	-0.00021242816	-0.0003154876	0.0005514521	-4.9511338e-05	4.3868586e-05	0.00019488839	0.00024273778	0.00011127594	-7.703876e-07	-0.00022487818	0.00023105598	-7.590736e-05	0.00012174553	2.2029952e-05	0.0002756843	-3.2702086e-05	5.515399e-05	6.8184636e-06	6.601982e-05	0.00046096306	-3.9260456e-05	-7.1313174e-05	-0.00030945	-0.00011725204	0.0001228401	7.662843e-05	-0.00010343369	-0.00017447709	-0.000101682286	2.2894536e-05	0.00017926325	-4.2566844e-05	0.00025498925	-0.00025287684	0.0002037791	-0.0003319375	-9.136056e-08	-4.7354144e-05	-0.00012489563	-0.00030884874	-0.00014794592	0.000102830956	0.00020303993	-0.00041442507	-0.0005423595	-0.00025410263	0.000386152	2.5315749e-05	-4.4022774e-05	-0.0005881821	-0.00066636654	-0.0005869633	-0.00040860847	-0.00038836052	-0.0006893962	0.00012036805	-0.00019336384	-0.00026043697	0.00029220723	0.00031096005	0.00020950742	-0.0001093751	0.0001426559	4.2173633e-06	0.0003409415	0.0002510662	0.00018210868	-9.15237e-05	0.00011417343	-0.0002460284	-4.9047216e-05	-0.00025999898	1.8412358e-05	9.82911e-05	0.0005205019	8.121609e-05	-6.798072e-05	5.6855613e-05	6.497993e-05	0.00015679872	0.00066367397	0.00013907519	0.00028947595	-0.00026621416	0.00027952893	-9.888133e-07	-0.00019315319	-0.00010038155	-0.0005530059	8.853385e-05	0.00024825902	-2.2568978e-05	8.885501e-05	-9.081074e-05	-5.890387e-05	0.00024474305	0.00016614136	0.0001821324	0.00022145135	2.5906771e-05	-8.0739475e-05	-0.000101581696	0.00015802769	-0.0002760986	0.00025798433	-0.00024934296	6.7063535e-05	0.00022673409	0.0002685682	7.4663e-05	-6.0966213e-05	-9.344221e-05	2.523193e-05	0.00037382185	0.00050968846	0.00013145998	0.000113772905	-0.00036692442	0.00026119544	0.00011395398	-0.00010288139	-5.6900037e-05	-0.00031975642	0.0001742022	-0.00036293326	0.00026919052	-0.00039229504	-0.00033470034	0.00014329224	-0.00017743926	-8.325592e-05	-0.00022763842	0.00013200559	0.00012565282	0.00025438823	0.00029901005	0.00036938212	-0.00014111833	-0.00011161369	-3.798581e-05	-0.00011895386	-0.00016575915	-3.0116784e-05	-6.0611048e-05	-0.0002510933	-0.0004040021	-0.00035981066	-0.000427181	-0.000119947166	-0.00018242447	-3.316757e-05	-0.00024443553	-0.00042461662	0.0002317321	-7.151395e-05	-0.00026058513	6.483794e-05	-7.451339e-05	6.957338e-05	0.00015173719	-9.399678e-05	-0.00013274538	3.3622004e-05	-0.000128581	-0.00027701314	3.047989e-05	0.00022103154	0.00038845759	0.00021554544	-0.00038126364	-0.00034744557	-0.00023129117	-4.937103e-05	-0.00027338666	2.4671952e-05	-0.0003370341	-0.00028818345	5.117359e-05	-0.0005552577	0.00025658568	-8.462309e-05	-0.00031605168	0.00021457898	-0.00044300774	0.00012238718	-5.05846e-05	-0.00022652921	-0.00011362608	0.00037884348	0.00016073964	0.0001120774	-0.00027387915	-0.00027258391	-8.569243e-06	0.0002899631	-0.00019925057	-0.00019283677	-0.00036399355	-0.0003351368	-0.00039323917	-0.00013813698	-1.5361078e-05	-0.00016290873	-3.3764754e-05	-0.0002606411	-0.0003989619	0.0002374446	-0.0003201995	-0.00022813237	-3.8182505e-05	0.0002369041	-0.00032634585	0.00015995493	8.310691e-05	0.00010223425	-0.0002040822	-0.00041023758	-0.00011914765	-8.451524e-05	5.773471e-05	-0.00062908087	0.000153091	0.00022496984	-7.860568e-05	-0.0002345818	-3.681236e-05	0.00011660835	0.00024884674	-0.0002794319	-0.00030089193	-0.0002466735	-0.0006965677	-0.00010564436	-0.00033361008	0.00014650305	9.124419e-05	-7.3611496e-05	0.00024675642	-0.00033412772	-0.00010033152	0.00022626977	-1.7981507e-05	-0.00040477258	0.00032791658	0.00033737905	9.171359e-05	1.3536335e-05	-0.00026526986	0.000305034	0.00021718511	1.2403293e-05	-0.000111161746	8.512098e-06	-0.00015905267	-0.000108043685	0.00011622841	-0.00024039592	-0.00026039823	-6.1013663e-05	0.00021142294	3.7102167e-05	8.0887425e-05	0.00052098	6.3733336e-05	0.00014988783	-0.00038037766	-4.870356e-05	0.0001713794	-2.2096487e-05	-0.00013032428	0.00039876532	-0.00017040911	7.4515e-07	-0.00036543244	-0.000115661736	-0.00033263423	0.0003594082	-0.00053498225	-0.00011306281	-0.00016408444	-1.7659193e-05	5.723983e-05	0.00023348923	0.00032134855	0.00013314509	0.00020484357	-0.00018742468	-0.00026403958	-0.00018430942	0.00038770595	7.211441e-05	-0.0004551415	-8.398888e-06	-0.00015875213	-0.00044872225	0.00014900784	7.812247e-06	0.00026516867
Von Mises–Fisher distribution_36	-4.9193455e-05	-0.0010481983	0.0005098622	0.00010002449	0.00011439371	-0.00016910338	0.00033637564	0.00022806968	0.00013988974	7.4081618e-06	0.00021045348	0.00044886448	-8.73269e-05	-0.0005012561	0.00028507138	-1.7612887e-05	0.00046753781	-0.00021585457	-0.0004187758	0.0006597459	0.00024321544	0.00028351467	2.9733113e-05	-0.00023827283	-0.00051214464	-0.0006563493	0.00031860592	-0.00027998266	0.00056881376	0.00043702396	0.00019251874	-0.00017512226	4.0526807e-05	-0.00044302442	0.00069293095	-0.00023143901	-0.00054005824	-0.00019394254	-0.00020855395	0.000116048825	9.4444156e-05	0.00020935142	0.00037690304	0.00022947649	-0.000114536684	-0.00036161602	-2.5370822e-05	0.00041036043	0.00018135893	5.9648137e-05	-0.00015267973	0.00017085104	-0.001156629	-0.00042838725	6.137552e-05	-0.00019965586	-0.00036894012	-0.00014403649	-0.00025812193	0.00014722171	0.00041104775	0.00021791858	0.00023311444	-0.00022943776	-6.958336e-05	-0.00046594883	0.00043238723	-1.7804675e-06	0.00012194142	0.00033516312	-0.00047886148	0.00033258746	-0.00028414393	-5.758847e-05	-0.000311934	0.00018980006	0.00044632534	-0.00041384544	-5.451474e-05	-0.0003084983	1.9571302e-05	0.000103083454	0.00034064695	-0.00010643292	9.4116534e-05	2.5689125e-05	-0.00023403112	0.00066683383	-0.00029328367	-0.0003982726	1.4984724e-05	-8.7840475e-05	0.00030448302	-0.000269697	0.0004697058	-3.7108963e-05	-0.00050595903	2.2161694e-05	5.5259017e-05	-3.0165455e-05	6.365273e-05	-8.761703e-05	-0.00014147013	-0.00025376474	0.00037166043	4.4682993e-06	6.2410136e-06	9.300606e-05	0.000112742804	0.00051460974	0.0004674305	8.609973e-05	-0.000392569	0.00021551871	-0.00042652892	0.0008716346	0.00039978907	0.00019288625	-0.00012680583	-0.0004893834	0.0002971128	-6.948636e-05	0.0003181293	0.0002201902	-0.00028031593	-4.4399858e-05	7.286218e-05	5.9489837e-05	-0.00077451154	-0.0002625319	6.02521e-05	0.00011941651	0.0003650026	-0.0005067556	8.585998e-05	0.00046455977	0.00013242911	-4.1707186e-05	-2.1356904e-05	-0.0008292867	-0.0005271467	0.00036429634	0.00015631008	-0.0005748256	-0.00015486268	-0.0002746712	-0.00016652423	-6.4202024e-05	0.00031479524	-0.00022378862	0.00024656678	-5.7376164e-05	-1.4354699e-05	-9.897638e-05	-0.0003659827	-1.6138127e-05	0.00018194245	7.661434e-05	0.0001210287	0.0005033292	-0.00046795877	0.00072584144	-0.00011917743	0.00028131116	0.00039240756	-0.0004614598	0.00021081502	-4.3221808e-05	-6.126527e-05	-7.579047e-05	0.00027307373	-0.0004466606	-3.1860945e-05	-0.00044647852	-2.5744976e-05	-0.0006683456	-1.719708e-05	0.0001852287	-0.00016156655	0.0002403685	-0.00015032521	-0.00013347101	0.0001313313	-0.00024264763	-0.0005088686	-0.00032399362	-0.00014124927	0.00034250662	-6.1863524e-05	0.00045341888	0.00025779274	2.7407743e-05	-0.00042465338	-0.0005815382	6.2089144e-05	-0.00028362666	-8.084633e-05	-0.00028518686	-0.00023871804	0.00022650049	0.0001210519	-0.00024085557	-0.00031154664	-0.00033500465	-6.748848e-05	0.00011026244	-0.00017267477	-0.00015876614	0.0005205228	-0.00013970495	-0.00016720226	9.408976e-05	0.00012169158	-0.0004597932	0.000112691334	-0.000391817	-0.00023474141	-0.00018227012	-0.00020634197	3.0472413e-05	9.4233816e-05	0.00021568732	-0.00020265245	0.00051136356	0.0004102705	-0.00021874695	0.000330736	0.00015318445	-0.00023268117	2.0364998e-06	-0.00021559009	1.7323828e-05	2.7414319e-05	-0.00022329371	0.00039759022	-0.00018552932	9.60837e-05	-0.00048924284	0.00042187618	0.00015423354	-0.00020243158	1.6255517e-05	0.00025061914	-0.00040333843	-0.00039943965	7.055935e-05	0.00033667483	9.640828e-05	2.9925164e-05	7.9435544e-05	0.00024807506	2.997776e-05	-0.00022386527	-0.0001127908	-0.00018447216	0.0005995681	-0.00022060817	-0.00019813035	5.140024e-05	-4.8740563e-05	9.641795e-05	0.0003115922	-0.00020981219	-0.00014276695	0.00011185999	9.230897e-05	0.00031095694	-0.00050815375	-0.00028273708	7.065218e-05	0.00024187313	-0.00037542143	0.00029465542	0.00046815077	6.286752e-05	-0.00027056522	-8.242263e-05	-0.00010508252	0.0004295896	-0.00028612083	-0.00015844146	-6.671084e-05	-0.00054090034	0.00047823245	0.00024318641	0.00034990232	6.1453145e-05	0.00041215518	-4.2240863e-05	0.00022303723	0.00026528604	0.0005290906	-0.00017384297	-0.00018180379	0.0003153858	-6.7615205e-05	-1.4929229e-05	0.00024276879	0.00026604295	0.00023078185
Von Mises–Fisher distribution_37	0.00032647734	-0.00058803766	0.0005186013	-0.0002847214	0.00018982406	0.0001334922	0.00017428404	-0.0001556278	2.8071607e-05	-0.00021413388	0.00026193017	0.0004967371	-0.00017957453	-0.0003180402	-4.016557e-06	-0.00018236971	0.00044478948	0.00016283254	-0.00054064277	0.00013257649	-1.0312291e-05	0.0003139485	8.555943e-05	4.1880237e-05	-0.00059105485	-0.00031753673	-2.490215e-05	0.00016116297	0.00025086603	0.00052506564	0.0002494711	-0.00040315563	0.0005249303	-9.8343706e-05	0.00015903932	5.0566283e-05	-7.3382515e-05	-0.0002933044	-0.0005117904	9.367442e-05	0.00032160385	0.00018424161	0.00033308254	-0.00019583468	-0.00051596516	-0.00021648707	-0.00012985643	0.0003478932	-9.901729e-05	-8.9424786e-05	-2.2477414e-05	0.00017737052	-0.0003984467	-8.4072235e-05	-3.411542e-05	-0.00041250285	-0.0002718787	-0.00030171542	-0.00023171003	-1.7296872e-05	-2.8952676e-05	0.00025459257	0.00019564238	0.00020946236	-2.7828662e-05	-0.00027901522	0.0005996929	-0.00013741491	9.364647e-05	0.00022784567	-0.0003030539	0.0002136669	-0.0002927381	-0.00012477595	0.00018643551	8.891514e-05	0.0004164385	-0.00026170455	-2.7257822e-05	-0.00026061214	0.00036391162	-0.00020812706	0.00057472737	-0.00018794181	-2.7703323e-05	-0.0004439296	0.0005809236	0.00037120588	-0.00027643662	-0.00020250831	0.00029322834	-0.00019085387	0.00011086782	0.00012359241	9.447484e-05	-9.849725e-05	-0.00014107754	7.756171e-07	-0.0001935958	-0.000119365825	-4.8929727e-05	3.6406742e-05	-0.00017534537	0.0001423301	0.00020951623	-0.00028078785	-0.0002182293	8.96555e-05	-0.00027194014	0.00020883913	-4.6296376e-05	0.0001147017	-0.00010932459	0.00013388525	8.898496e-06	0.0001411446	1.1210823e-05	-0.00014597533	-0.00020032076	-0.00030346235	0.0002530073	-5.194945e-05	1.681914e-05	9.367785e-05	-0.00041412737	3.984561e-05	-8.503056e-05	0.00016537702	-0.0005285569	-0.00040881842	-0.00024173895	0.00015283476	5.0373303e-05	-0.0002529183	-2.1087473e-05	0.00032064205	7.75877e-05	6.800285e-05	0.0002502748	-0.0006967025	-0.0006731654	2.2763055e-05	0.00010589569	0.00027965396	0.00012020631	-6.1320075e-05	-0.00021127665	-5.0723538e-05	-0.00014882116	-5.6191393e-06	2.7536792e-06	7.172751e-05	-5.236664e-05	-0.00020708982	-0.000661474	-1.1476038e-06	0.00010851071	0.0002630073	-0.00019462849	0.00029673724	-0.00055812986	0.00022948388	0.00029024525	0.0002503325	0.0004447321	-0.00043240451	0.00032927294	-0.000121980214	5.4692637e-06	-0.0003667929	0.00043252742	-0.00039598945	0.0002733596	2.3758577e-07	0.00021401468	-0.00037410835	-2.9690467e-05	-8.416198e-05	-9.897214e-06	1.0654649e-05	-5.8622987e-05	0.00015620486	3.7813843e-05	0.00028734273	-3.92838e-05	8.5724125e-05	-0.000103033875	5.5227425e-05	-3.1008934e-05	-3.8063426e-05	0.00019970941	-2.5210806e-05	-0.000102510945	-0.00022049526	-0.00013175196	-1.2483593e-05	-8.853079e-05	-0.0004488264	-0.00053787313	2.555306e-05	0.00018179127	-0.00029971072	-0.00066296296	3.096828e-05	-0.00021459871	0.00012125185	-8.680296e-05	-0.00039091634	0.0006367014	-0.000106046195	-0.000480771	0.00018492118	5.581148e-05	-0.00036891986	0.00015864418	-0.0001894994	0.00012897732	4.5104043e-06	-0.00011979909	1.8136187e-05	2.6444935e-05	0.000177131	-0.00031049285	-0.00025980707	0.00038281523	-0.00021954214	0.0002033741	-0.00039890042	-0.00028556696	1.1138889e-05	0.00033201982	-0.0002407105	7.416099e-05	1.6951763e-05	0.00017009256	-0.0003491388	0.00033561236	-0.00044067192	0.00030554584	9.226054e-05	0.00012260386	2.1554968e-05	-0.00015762712	-0.000666328	-0.00052547373	0.00035743223	0.00030067124	-0.00012492634	-4.883637e-07	0.00019803773	5.158347e-05	-5.5448352e-05	-0.00023659867	-0.00016238376	-0.00014805149	2.9333929e-05	-0.00013234785	-0.0004271853	-0.000243325	9.779953e-05	-0.00048779542	0.00046252488	-0.00041867315	-0.0002279589	-1.41651435e-05	-0.00032715464	-4.6500973e-05	-2.6533196e-05	2.2838965e-05	0.00030266924	-8.578046e-05	0.00012188156	6.157938e-05	0.0002801244	-0.00039783135	-0.00022681018	-0.0002784046	-0.0003056121	0.0001830224	-0.0004080346	-0.00025593716	-0.00015904938	-0.00018560477	4.145076e-05	0.0003835053	0.00019498768	-0.00023335118	0.00019847558	-0.00015556549	1.7636266e-05	-0.00027009306	-7.279551e-05	-0.0001679238	-0.00023459409	0.00017768673	-0.00016150458	-0.00017883486	-0.0001826824	0.00023438057	0.0001341638
Von Mises–Fisher distribution_38	0.0001941154	-0.0002950629	-0.00023051113	-0.00048980606	0.00024490405	0.00011242231	6.4943335e-05	5.2487925e-05	0.00023115233	-2.4839163e-05	-0.00016775208	0.00010928482	-0.00011649593	-0.00027064208	0.00026156064	-2.887362e-05	0.00019106986	-0.0004126802	0.00010762283	8.518824e-05	-8.755904e-05	-8.952828e-05	-5.376737e-05	0.00020838671	-7.6420154e-05	-0.00045127436	-0.00026264304	0.0004567879	0.00034284676	-0.00023507485	-0.0005806662	-0.00055031676	6.6341985e-05	0.000259529	0.00015251728	-0.00032045553	-4.7813926e-05	-0.00053708773	7.055731e-05	7.5227304e-05	0.00010915037	-0.00035930212	-0.00016627817	-0.000103517516	-0.0001827748	2.9556022e-05	-0.00014507047	-0.0003637471	-0.0001690731	-4.049039e-05	-0.0004801896	-0.00016300511	-0.00065079913	-0.00022333598	-0.00040086787	-0.00030544636	-0.0002037172	-0.00015744768	-0.0004382566	-0.00039312887	0.0003567651	0.00017966058	-0.00013133469	-0.00032113487	2.1611946e-05	5.088991e-06	0.00042122978	0.00032949762	-8.43366e-05	-8.683546e-05	-0.00015105307	0.00023943526	0.00025826154	-0.00046884842	6.0254748e-05	0.0001055455	0.00016955842	-0.00022414181	-9.503942e-05	4.024004e-05	-0.00033974202	6.394133e-05	0.00022778178	0.0003458766	-8.1794526e-05	-0.00055474817	0.00038150267	-6.323233e-05	-0.0004117264	0.00011997483	-0.00036086378	0.00018645363	7.356101e-05	1.8718341e-05	-6.650247e-05	-0.00024532972	-0.00015646614	4.6840625e-05	0.00010521622	6.853962e-05	-0.00020060288	1.4239092e-05	-0.0002465239	-0.00020105547	0.00010973094	-0.000490667	0.00010868518	-0.00033046052	0.0003091554	4.7865113e-05	0.00018990916	-0.00021612139	5.4668355e-05	-0.00036693053	0.00012077354	-3.136814e-05	0.0007329816	-1.9618066e-05	-4.3732734e-06	-0.00045274603	0.0007473739	-0.00014352617	-0.0004237719	-7.261251e-05	-0.00032518373	2.8312123e-05	-0.00013340883	-0.00014342096	-0.00040744946	-0.00057449186	5.524015e-05	-0.00028451325	-0.00037991485	-0.00030333773	-4.8270114e-05	0.00017214626	0.0001564113	0.0003897174	0.00058872876	-5.721976e-06	0.00032594314	-0.00017285426	-0.00027286852	0.00012895725	0.00023848224	1.0367995e-05	-2.321578e-05	-0.00036091983	8.675968e-06	-0.00035458466	-6.0023922e-05	0.00033222852	-4.7480873e-05	-0.0003488968	-0.00055774674	0.00019637911	-0.00010964353	-0.00026531008	0.00031677037	0.0002565663	0.00013714047	-2.2062e-05	-0.00025657116	8.59892e-05	-4.9305265e-05	-0.0003636276	-8.138611e-06	3.4632936e-05	-0.00014665186	0.00019372141	0.00017913185	0.00010205722	-0.00051563565	-0.00038805517	0.0001656107	-0.00024878324	-0.00023348577	2.8124507e-05	-0.00029517655	-0.00011471709	-0.0005578058	0.00044217563	-3.92074e-05	-0.00044287535	-0.00010640558	-0.00020649479	-0.00014861705	-0.000104275314	-0.00010361472	-0.0002713228	0.00032469758	0.00010209646	-0.00045314056	-0.00013776238	-6.820252e-05	-9.7016724e-05	0.00026199545	-0.00036872277	-0.00047328285	-0.00020123833	-0.000110404406	-0.00034271704	-0.00023030273	0.0002560745	-0.00014728402	-0.00044762093	-0.00028063433	-0.0003681388	8.977644e-05	-0.00011581251	-0.0003726032	0.0004676944	0.00019791794	-0.00031410155	-0.00012265176	-6.608085e-05	0.0003559981	-8.538266e-05	-0.00016620969	2.7760818e-05	-0.00027660336	3.3437824e-05	-0.00042050733	0.00024880675	0.000515685	-0.0001039828	-0.00014368843	-0.00010835857	0.00022372762	0.00029207006	-0.0001954725	-0.00032091295	-0.00012309062	-0.00021981736	0.0001269539	-0.00040218353	0.00021405102	-4.2400192e-05	-0.0001556933	-2.6404708e-05	0.00011691903	-9.760644e-05	-0.00014333912	-0.00027650717	-0.0006923695	0.00028948585	0.00020884784	0.00021922434	8.985263e-05	-0.00037192384	0.00053431024	0.0004973204	-0.00011314292	-1.4228613e-05	0.0003224082	-0.00015881225	9.571202e-05	0.00016933134	-0.00041841387	-0.00033819725	-0.00013025319	0.000105355524	2.6477248e-05	-0.00030382304	0.00054237706	7.083887e-05	-0.0002773577	-0.00042150926	-0.0001742755	-0.00012737773	4.2954918e-05	-0.00026004761	0.00014476675	0.00022469541	0.00029119418	-8.094299e-05	1.7327318e-05	-0.00014144728	-0.00013484852	-0.00027627219	0.00026504835	-0.00039733274	-0.0001216605	0.00046636444	0.0006763211	0.00024767575	0.00015032463	0.00031357163	-0.00035067636	4.7766767e-05	0.00011374362	-4.1699175e-05	0.00012207976	-0.00010300867	0.00033108078	-0.00017538526	-0.0004996451	0.00037150012	3.9272377e-06	0.00017492
Von Mises–Fisher distribution_39	-4.6873367e-05	-0.00044271164	-0.00049715815	-0.00037907346	0.000672267	0.00025080377	-0.0004308963	0.00020536971	0.0002486977	0.00042487762	0.00012473545	5.6589506e-05	0.00019431047	0.00026751665	0.00038410543	0.00030798858	0.0002764021	-0.0005589509	-7.7997385e-05	-0.00017242615	6.773353e-05	0.0004632418	0.0007551117	-0.00013876754	-0.00033141798	0.00032338029	1.0514152e-05	-0.00011402856	-0.00017903547	-0.00028609275	1.890449e-05	0.00034273713	-0.00011491601	0.0002069584	4.8123737e-05	-5.2193514e-05	0.000535351	-0.0004824438	4.571587e-05	-0.00033609607	0.000114320814	-0.00023988412	-0.00040487348	-1.8117124e-05	0.00024460952	-0.00020911153	-0.00043490322	-0.0004462281	1.6499078e-05	0.00039469308	0.00021022967	-0.0005408951	-8.233997e-05	-0.00062419835	-0.00017505854	-0.00012936401	-0.00044943846	0.00062417175	-0.00038671654	-0.00016781628	0.00064999104	0.00022621371	8.537659e-05	-8.018655e-05	-0.00011116406	0.0005320809	0.00036565508	0.00050712813	0.00036484687	-0.00068057294	0.00014270932	-0.0005041208	0.00036177528	-0.0001074587	-3.393434e-05	0.00016696769	0.0004801745	0.000406178	0.0003304516	4.673617e-05	-0.00019794589	0.00011017047	0.0008557433	0.00030648586	0.00031845094	-9.71763e-05	0.00017725886	-0.00016258715	-3.870622e-05	-8.1418606e-05	-0.00035074176	0.0005041389	3.8829217e-05	1.4265077e-05	-5.5837016e-05	0.0004460986	-1.2043398e-05	0.000218927	0.00039524838	0.00050720066	-5.293543e-06	-8.608495e-07	-5.2390995e-05	-0.00034401272	8.115649e-05	-0.0006067549	0.0005498836	-0.00036468936	-8.185295e-05	-0.00016762938	-5.5476725e-05	-0.00033275926	0.000414503	0.00022160471	0.00014016258	1.5562251e-06	0.00056032575	8.5919426e-05	0.00017701082	-0.00018393877	0.00018077478	0.0002845442	4.261617e-06	-0.0001766466	-0.00025559677	-8.013535e-06	-0.0003471604	0.00047249295	-0.00024448973	-2.1592346e-05	-0.00012866071	-0.00031446334	-8.343956e-05	-0.00013325011	-0.0003297242	0.00027664105	8.281629e-05	0.0004019448	0.00022247995	1.1038121e-05	0.00012526325	-0.0005784842	-0.0004413291	-0.000101159174	-0.00043697632	4.308798e-05	-0.00014259017	-0.00021890375	-0.0004473562	-0.00015590791	-0.00042670174	0.00016290204	-0.00019727685	0.00012009371	-0.0004586088	-2.3771827e-05	-0.00013282958	-0.00033726284	0.00017896484	2.5512036e-05	0.00039067215	0.00021305897	-9.112433e-05	-0.00029439683	-0.00015627407	0.00015212686	-0.00048272216	-0.00020456217	0.0001472508	0.00041056445	-0.0001453867	-2.2293223e-05	-0.0004919794	-0.00011792587	-0.000507384	-0.00054906425	0.0002329733	-0.000117609896	-0.00042512134	4.9595663e-05	-0.00063070434	0.00011907265	-0.00081107335	-0.00042044296	0.00017943137	-0.00041995922	0.0003166736	3.1255142e-05	-0.00011500444	-0.0002441179	0.00038335472	0.00018003688	0.00040601337	-0.00029028705	-0.00019684814	0.00019689178	0.00025658787	-0.0004423509	-8.506359e-05	-0.0005278612	-0.00022889278	-0.00029778524	-0.00012606854	-0.00012480211	-9.614235e-05	-0.00035806803	-0.00017644654	-0.00028819023	-0.00022298265	2.2136671e-06	-6.5160595e-05	3.2968605e-05	0.00014329675	-0.00015197368	7.780294e-05	0.0004522	0.00040726902	0.00031744936	-0.000287553	-0.0004902498	-0.00028022347	-7.42674e-05	-0.0005003984	-1.5121946e-05	-2.392034e-05	0.00035235085	-0.00017051723	-7.226737e-05	0.00043457723	0.00017895726	-2.8431867e-05	-0.0006364755	-4.150451e-05	-0.0008005486	-0.000231095	-0.00056280027	0.00032842925	0.0006797698	-0.00015956553	-7.4947407e-06	-3.8688893e-05	-0.00033842179	0.00041271775	0.00014965751	-0.00036915773	6.8823542e-06	0.00089919	0.00014875483	-0.00034520403	-0.0003752204	0.00031188162	0.00016046017	0.00011777073	-0.00033731456	0.00039933037	-0.0002502567	-0.0003056456	0.00017995463	-0.0005591034	0.00025441512	7.8895704e-05	0.000483749	4.414981e-05	-0.00022362928	0.000819672	-0.00024155769	0.00040283604	-0.00030446379	0.0001594485	0.00043761512	-7.390058e-05	5.9135647e-05	0.0004706747	-0.00056586036	0.00029053877	-0.00035720185	0.00046332038	-0.00027608708	2.827752e-06	-0.00056991907	-0.00035179735	-0.0005002925	0.00010206288	0.00024790296	8.828952e-06	0.0004658966	-0.00035297504	0.00022081229	-0.0004359629	-0.00051004096	0.00020523377	0.0003621207	3.053475e-05	-0.0005328349	-0.00048405075	-0.0002906271	-0.0004741244	0.000110015644	-0.00017862367	0.00058616075
Von Mises–Fisher distribution_40	0.0003743195	-0.00013203411	-0.00028643545	0.00015969023	-0.0008974367	9.231324e-05	0.0003037173	0.00065162027	-0.00048353415	-0.00029218275	1.0489952e-05	-0.00027587198	0.0001678894	0.0005346312	0.00034808108	-0.00016483896	0.00032706943	-0.0005144524	-0.00029320168	4.6149402e-05	0.00020538985	-0.00085258856	0.0012416549	-7.0492744e-05	0.00046933666	0.00047637685	-0.00014459908	0.0005778486	-0.0007614359	7.128995e-05	-0.0007194632	0.001185573	-1.4853275e-05	-0.00095091545	-0.00040323683	0.0006800082	0.00011839692	-0.00017794833	0.00038183611	0.0006146386	-0.00031632147	-0.00010057938	-0.00023181054	-0.0011946495	8.980392e-05	0.00038344818	-0.0006611178	-0.00026751938	0.0005112077	0.0002974713	-0.00036052222	0.00060922647	-0.0001228788	-0.00012025788	0.0001225031	0.0007637131	-0.00119051	-0.00017242933	3.743356e-05	0.00022624953	-0.00015161831	0.00046633728	-0.00042458726	4.355656e-05	-0.00029399985	0.00014263613	0.00041402597	0.000987947	0.0003744045	0.00031173203	0.0005931452	-0.00018510544	0.00045279087	0.0010265894	0.0003432942	0.0006996147	6.06407e-05	0.00046730798	0.00067677797	0.00034280447	-0.00013127209	0.00037834936	-8.453085e-05	0.0008802062	0.00027219017	-8.8246115e-06	-0.0007949739	0.00087156193	0.00026977685	5.669172e-05	-0.00017110119	0.00036021497	-0.00079844176	-0.00045272478	-0.00062214903	-0.00047698594	0.0005358976	0.00010310319	0.0012054412	0.00018412386	-0.0003108699	-0.00023931975	-4.270823e-05	-0.000119098775	-0.00051748875	-0.0005310409	0.00078480894	0.0005700391	-0.00021220936	-0.0006750308	-0.00022241031	-0.00028356691	0.00083786994	0.0007348405	0.001123306	0.00034766775	-0.00011443275	0.00055397145	-0.00029175432	0.0002445863	0.00081792247	-8.487523e-05	0.00016590678	0.00010075071	-9.6517244e-05	0.0001158505	1.414062e-05	-0.0010446833	0.00040622972	-1.508826e-05	-0.0011520755	-0.0012249298	-0.00032162605	0.0007665087	0.00034139786	-7.3822135e-05	9.1491376e-05	-4.7078396e-05	5.7725218e-05	1.1520814e-05	0.0004696853	0.0003505159	0.00030462723	-0.00025968676	-0.00041650955	0.0005617331	0.00056731567	-0.00013646734	-0.0010203434	-0.00077278964	-0.00042483778	0.0010353724	-0.0003681738	-0.00020501693	-0.00034303413	0.00026214396	-0.000784152	0.00063593587	0.0010287717	0.00026558002	-0.0005008706	0.00024112542	-3.765368e-05	-0.0006454252	0.0002800848	0.00025292137	-6.740342e-05	-0.0010568817	3.4826614e-06	-6.3576466e-05	2.6892367e-05	0.0005385257	8.8263514e-05	9.880319e-05	0.00030671654	0.00016596307	0.0006704279	-0.00033013485	-0.00038068442	-0.00036651196	-0.00051170605	0.00042829933	-0.00059875165	4.3888478e-05	-0.00084715866	0.00029934128	0.00038757583	-0.0003754174	3.9931233e-06	-0.00016394985	4.1146297e-05	0.00024699492	-0.0009813228	0.0005216067	0.0007205375	-0.00016448852	-0.00038873477	-0.0004847889	0.00049930654	0.00033548483	0.00060076726	-0.00054599595	-0.00056955434	-0.0008360827	-0.00055963243	0.0004022699	0.0005767207	0.001094635	-0.00043171213	0.00023924245	-0.00029102628	-0.00091937656	0.0012378157	0.0010676472	0.00046505904	-0.0007201741	0.0008155764	-0.0004024205	-0.0005284703	-0.0009144842	-9.8304045e-05	0.00045727784	-0.00012020755	0.0006226391	-0.0003411475	-0.0001839504	-0.00030166295	1.704883e-05	-0.00028552784	-0.000360455	-0.00037503775	0.00066189934	0.00015087736	-0.0008269833	0.00016886617	0.0006271738	0.00052105525	-0.0007038619	0.00013357606	-0.00022319639	-0.00017056853	0.0003406947	0.0008517495	0.0005876804	0.00037743102	-0.00040717097	0.00057396496	-0.000733146	-0.0007852094	0.0012989952	-0.00050965504	3.8475464e-05	-0.00036371677	0.00024813248	0.00011038472	-0.0007166247	-0.00013125926	-6.8782945e-05	0.00016794512	0.0004569964	0.00057710713	-0.00060778204	0.00032122296	0.0003347503	-0.00018237434	-0.0005939756	-0.00010037061	0.00031134617	0.0012156988	-0.00015743567	0.00014644097	-0.00048594954	-0.000117433105	0.00013662002	0.00020988495	0.0009966256	0.00013501685	-0.00039687855	-0.00031785175	0.0006041829	0.00037995307	-0.00056924444	-6.376886e-05	-0.00026738396	-0.0014124904	-0.0005838243	0.00013402781	0.0011743865	6.1023293e-05	-0.00025926382	-0.00040761745	0.00057329255	0.0004664847	-8.496394e-05	4.617206e-05	-0.00036196635	-0.00066924654	0.00023501285	-2.9840157e-05	0.0005603428
Von Mises–Fisher distribution_41	-0.00039921506	-0.0005291986	-0.00090755615	-0.00042747243	0.0013678052	0.00058095757	-0.00052686833	2.718391e-05	0.0007519259	0.00028139367	0.00056000246	0.0005909831	4.0572526e-05	0.0008559302	0.00074374984	0.0007426341	0.00012697939	-0.0008174288	-0.0002810898	-0.00048663848	0.0007439817	0.00071176136	0.0008897981	0.00035077473	-0.00045113816	0.00038351188	-0.0002600679	0.00013803497	-2.615926e-05	-0.00043854982	-0.00027193592	0.00070328225	-0.000100365	0.00045500937	-0.0002240017	-0.00028582432	0.00079550006	-0.00053974683	0.00012685692	-0.000452344	0.0002253584	-0.0009259507	-0.0008754709	0.00026445364	-0.00010314779	2.3942664e-05	-0.00038346366	-0.00077390677	2.8265611e-05	0.00012046852	0.0005415147	-0.0004219557	3.10676e-05	-0.00081186165	-0.00045392	-0.00017131859	-0.00027267908	0.0007980545	-0.00046433063	-0.000656535	0.0010038881	-0.000104902625	0.00040516292	-0.0004916483	-0.000304766	0.0011736667	0.000792631	0.00042007084	0.00040382333	-0.0012292308	0.00048432118	-0.0008165463	0.0004762565	-0.00012285367	0.00041438916	0.0002523984	0.00019712979	0.0008838113	0.0005493906	-4.38547e-05	-0.0005179485	-9.957872e-05	0.001262674	0.00069893437	0.0005558838	1.0493677e-06	0.00047550318	-0.00021158393	-6.407183e-05	-5.926964e-05	-0.00011038809	0.00037058443	-0.00021176564	0.00047103537	1.6810307e-05	0.0009638428	0.00058323663	0.00040956796	3.7871592e-05	0.0009278482	7.1676746e-05	0.00022267502	0.0001242003	-0.00073273527	-0.0002126887	-0.0009788127	0.0009361147	-0.0007804469	-0.0004442023	-0.00020687714	-0.00042996395	-0.00095634	0.00067523104	0.00011275647	0.00048020462	-0.00025742603	0.0005912457	-0.00045969442	0.00010380836	-0.00038788025	0.00014749795	0.00091505004	0.00024883743	-3.430589e-05	-0.00041918465	-5.900662e-05	-5.790716e-05	0.00036001636	-0.00044102143	-0.00035960824	-9.551217e-05	-0.0005162196	0.00038338546	-6.639352e-05	-0.00096492056	0.000558493	0.00013773888	0.000118279364	0.0005085631	0.00046636956	-5.8520567e-05	-0.0006632662	-0.00029566127	-0.00016592792	-0.00079433183	-3.577827e-05	-0.00025592782	0.00024853722	-0.00048672233	-7.78964e-05	-0.0011458158	0.00038575116	-0.00024190683	5.878287e-05	-0.00041600913	0.00014835426	-0.0004550901	-0.00048521798	0.00074128294	0.00013373427	0.0008773299	0.00032969986	-0.00027190836	-0.00065568805	-0.0005068498	1.0633375e-06	-0.00073948456	-0.00010518741	0.00064774754	0.00077810645	-6.0796952e-05	-0.00031106628	-0.0012196846	-0.00022225718	-0.0011252286	-0.0008435789	0.00034448737	-0.00032851836	-0.0004191492	0.0004867135	-0.0010801394	-0.00023802421	-0.0011254298	-0.00043340112	0.00027001053	-0.00072146533	0.00019874382	-0.0002981581	-0.00037652696	-0.00030023526	0.0008383845	-1.2108358e-06	0.0004979863	4.68925e-05	-0.00044978244	0.00069892424	0.00021589284	-0.0009949524	4.7879472e-05	-0.0012785321	-0.000329445	-0.0002474144	-0.00029906782	0.00014871849	-0.00015753241	-0.0005384618	0.00013901723	-8.8266e-05	-0.00011646113	0.00011600632	0.00054820976	-5.912218e-05	-0.0003459161	0.0003161458	-4.6998863e-05	0.000646364	0.00060859934	0.00084922725	-0.0004178254	-0.00058431044	-0.00015476816	-0.00035077517	-0.00039656265	-0.0006509835	-0.0003307933	0.0006844178	-0.00025884388	-0.00015957908	0.00075828115	0.00041869446	-9.2810194e-05	-0.0010846583	0.00052785635	-0.0011635926	-0.00020212843	-0.0010867569	0.00014593313	0.0009017756	-6.2167026e-05	-0.0002889418	0.0002781528	-0.000651268	1.0467251e-05	0.0005247449	-0.0003390729	0.00019404617	0.0012194716	0.0004248356	-0.0008447732	-0.0007483272	0.0002963251	-0.000106185755	0.000101663834	-0.00043177314	0.001235738	1.5337137e-06	-0.00015805638	0.00021109289	-0.0006099271	-0.00010337972	0.00050671044	0.0004410734	0.00052136544	-1.7732265e-05	0.00094110315	-0.00039338958	0.00021057257	-0.00073027256	0.00027990213	0.0007930175	-0.00026679164	-0.00025342498	0.00074000814	-0.0012751723	0.00046820522	-0.0007460247	0.00079686305	-0.0005692313	0.0003206127	-0.0006980298	-0.00045841225	-0.0008336461	-0.0002420781	0.00043640207	0.0002632344	0.00058807107	-0.0005566327	3.560838e-05	-0.0009958477	-0.0010835371	0.00027382848	0.0003262876	0.00025694005	-0.0006506311	-0.0007944402	-0.00041636615	-0.0006664046	-6.1938634e-05	-1.0573771e-05	0.0011027072
Von Mises–Fisher distribution_42	-0.00039921506	-0.0005291986	-0.00090755615	-0.00042747243	0.0013678052	0.00058095757	-0.00052686833	2.718391e-05	0.0007519259	0.00028139367	0.00056000246	0.0005909831	4.0572526e-05	0.0008559302	0.00074374984	0.0007426341	0.00012697939	-0.0008174288	-0.0002810898	-0.00048663848	0.0007439817	0.00071176136	0.0008897981	0.00035077473	-0.00045113816	0.00038351188	-0.0002600679	0.00013803497	-2.615926e-05	-0.00043854982	-0.00027193592	0.00070328225	-0.000100365	0.00045500937	-0.0002240017	-0.00028582432	0.00079550006	-0.00053974683	0.00012685692	-0.000452344	0.0002253584	-0.0009259507	-0.0008754709	0.00026445364	-0.00010314779	2.3942664e-05	-0.00038346366	-0.00077390677	2.8265611e-05	0.00012046852	0.0005415147	-0.0004219557	3.10676e-05	-0.00081186165	-0.00045392	-0.00017131859	-0.00027267908	0.0007980545	-0.00046433063	-0.000656535	0.0010038881	-0.000104902625	0.00040516292	-0.0004916483	-0.000304766	0.0011736667	0.000792631	0.00042007084	0.00040382333	-0.0012292308	0.00048432118	-0.0008165463	0.0004762565	-0.00012285367	0.00041438916	0.0002523984	0.00019712979	0.0008838113	0.0005493906	-4.38547e-05	-0.0005179485	-9.957872e-05	0.001262674	0.00069893437	0.0005558838	1.0493677e-06	0.00047550318	-0.00021158393	-6.407183e-05	-5.926964e-05	-0.00011038809	0.00037058443	-0.00021176564	0.00047103537	1.6810307e-05	0.0009638428	0.00058323663	0.00040956796	3.7871592e-05	0.0009278482	7.1676746e-05	0.00022267502	0.0001242003	-0.00073273527	-0.0002126887	-0.0009788127	0.0009361147	-0.0007804469	-0.0004442023	-0.00020687714	-0.00042996395	-0.00095634	0.00067523104	0.00011275647	0.00048020462	-0.00025742603	0.0005912457	-0.00045969442	0.00010380836	-0.00038788025	0.00014749795	0.00091505004	0.00024883743	-3.430589e-05	-0.00041918465	-5.900662e-05	-5.790716e-05	0.00036001636	-0.00044102143	-0.00035960824	-9.551217e-05	-0.0005162196	0.00038338546	-6.639352e-05	-0.00096492056	0.000558493	0.00013773888	0.000118279364	0.0005085631	0.00046636956	-5.8520567e-05	-0.0006632662	-0.00029566127	-0.00016592792	-0.00079433183	-3.577827e-05	-0.00025592782	0.00024853722	-0.00048672233	-7.78964e-05	-0.0011458158	0.00038575116	-0.00024190683	5.878287e-05	-0.00041600913	0.00014835426	-0.0004550901	-0.00048521798	0.00074128294	0.00013373427	0.0008773299	0.00032969986	-0.00027190836	-0.00065568805	-0.0005068498	1.0633375e-06	-0.00073948456	-0.00010518741	0.00064774754	0.00077810645	-6.0796952e-05	-0.00031106628	-0.0012196846	-0.00022225718	-0.0011252286	-0.0008435789	0.00034448737	-0.00032851836	-0.0004191492	0.0004867135	-0.0010801394	-0.00023802421	-0.0011254298	-0.00043340112	0.00027001053	-0.00072146533	0.00019874382	-0.0002981581	-0.00037652696	-0.00030023526	0.0008383845	-1.2108358e-06	0.0004979863	4.68925e-05	-0.00044978244	0.00069892424	0.00021589284	-0.0009949524	4.7879472e-05	-0.0012785321	-0.000329445	-0.0002474144	-0.00029906782	0.00014871849	-0.00015753241	-0.0005384618	0.00013901723	-8.8266e-05	-0.00011646113	0.00011600632	0.00054820976	-5.912218e-05	-0.0003459161	0.0003161458	-4.6998863e-05	0.000646364	0.00060859934	0.00084922725	-0.0004178254	-0.00058431044	-0.00015476816	-0.00035077517	-0.00039656265	-0.0006509835	-0.0003307933	0.0006844178	-0.00025884388	-0.00015957908	0.00075828115	0.00041869446	-9.2810194e-05	-0.0010846583	0.00052785635	-0.0011635926	-0.00020212843	-0.0010867569	0.00014593313	0.0009017756	-6.2167026e-05	-0.0002889418	0.0002781528	-0.000651268	1.0467251e-05	0.0005247449	-0.0003390729	0.00019404617	0.0012194716	0.0004248356	-0.0008447732	-0.0007483272	0.0002963251	-0.000106185755	0.000101663834	-0.00043177314	0.001235738	1.5337137e-06	-0.00015805638	0.00021109289	-0.0006099271	-0.00010337972	0.00050671044	0.0004410734	0.00052136544	-1.7732265e-05	0.00094110315	-0.00039338958	0.00021057257	-0.00073027256	0.00027990213	0.0007930175	-0.00026679164	-0.00025342498	0.00074000814	-0.0012751723	0.00046820522	-0.0007460247	0.00079686305	-0.0005692313	0.0003206127	-0.0006980298	-0.00045841225	-0.0008336461	-0.0002420781	0.00043640207	0.0002632344	0.00058807107	-0.0005566327	3.560838e-05	-0.0009958477	-0.0010835371	0.00027382848	0.0003262876	0.00025694005	-0.0006506311	-0.0007944402	-0.00041636615	-0.0006664046	-6.1938634e-05	-1.0573771e-05	0.0011027072
Von Mises–Fisher distribution_43	0.0003743195	-0.00013203411	-0.00028643545	0.00015969023	-0.0008974367	9.231324e-05	0.0003037173	0.00065162027	-0.00048353415	-0.00029218275	1.0489952e-05	-0.00027587198	0.0001678894	0.0005346312	0.00034808108	-0.00016483896	0.00032706943	-0.0005144524	-0.00029320168	4.6149402e-05	0.00020538985	-0.00085258856	0.0012416549	-7.0492744e-05	0.00046933666	0.00047637685	-0.00014459908	0.0005778486	-0.0007614359	7.128995e-05	-0.0007194632	0.001185573	-1.4853275e-05	-0.00095091545	-0.00040323683	0.0006800082	0.00011839692	-0.00017794833	0.00038183611	0.0006146386	-0.00031632147	-0.00010057938	-0.00023181054	-0.0011946495	8.980392e-05	0.00038344818	-0.0006611178	-0.00026751938	0.0005112077	0.0002974713	-0.00036052222	0.00060922647	-0.0001228788	-0.00012025788	0.0001225031	0.0007637131	-0.00119051	-0.00017242933	3.743356e-05	0.00022624953	-0.00015161831	0.00046633728	-0.00042458726	4.355656e-05	-0.00029399985	0.00014263613	0.00041402597	0.000987947	0.0003744045	0.00031173203	0.0005931452	-0.00018510544	0.00045279087	0.0010265894	0.0003432942	0.0006996147	6.06407e-05	0.00046730798	0.00067677797	0.00034280447	-0.00013127209	0.00037834936	-8.453085e-05	0.0008802062	0.00027219017	-8.8246115e-06	-0.0007949739	0.00087156193	0.00026977685	5.669172e-05	-0.00017110119	0.00036021497	-0.00079844176	-0.00045272478	-0.00062214903	-0.00047698594	0.0005358976	0.00010310319	0.0012054412	0.00018412386	-0.0003108699	-0.00023931975	-4.270823e-05	-0.000119098775	-0.00051748875	-0.0005310409	0.00078480894	0.0005700391	-0.00021220936	-0.0006750308	-0.00022241031	-0.00028356691	0.00083786994	0.0007348405	0.001123306	0.00034766775	-0.00011443275	0.00055397145	-0.00029175432	0.0002445863	0.00081792247	-8.487523e-05	0.00016590678	0.00010075071	-9.6517244e-05	0.0001158505	1.414062e-05	-0.0010446833	0.00040622972	-1.508826e-05	-0.0011520755	-0.0012249298	-0.00032162605	0.0007665087	0.00034139786	-7.3822135e-05	9.1491376e-05	-4.7078396e-05	5.7725218e-05	1.1520814e-05	0.0004696853	0.0003505159	0.00030462723	-0.00025968676	-0.00041650955	0.0005617331	0.00056731567	-0.00013646734	-0.0010203434	-0.00077278964	-0.00042483778	0.0010353724	-0.0003681738	-0.00020501693	-0.00034303413	0.00026214396	-0.000784152	0.00063593587	0.0010287717	0.00026558002	-0.0005008706	0.00024112542	-3.765368e-05	-0.0006454252	0.0002800848	0.00025292137	-6.740342e-05	-0.0010568817	3.4826614e-06	-6.3576466e-05	2.6892367e-05	0.0005385257	8.8263514e-05	9.880319e-05	0.00030671654	0.00016596307	0.0006704279	-0.00033013485	-0.00038068442	-0.00036651196	-0.00051170605	0.00042829933	-0.00059875165	4.3888478e-05	-0.00084715866	0.00029934128	0.00038757583	-0.0003754174	3.9931233e-06	-0.00016394985	4.1146297e-05	0.00024699492	-0.0009813228	0.0005216067	0.0007205375	-0.00016448852	-0.00038873477	-0.0004847889	0.00049930654	0.00033548483	0.00060076726	-0.00054599595	-0.00056955434	-0.0008360827	-0.00055963243	0.0004022699	0.0005767207	0.001094635	-0.00043171213	0.00023924245	-0.00029102628	-0.00091937656	0.0012378157	0.0010676472	0.00046505904	-0.0007201741	0.0008155764	-0.0004024205	-0.0005284703	-0.0009144842	-9.8304045e-05	0.00045727784	-0.00012020755	0.0006226391	-0.0003411475	-0.0001839504	-0.00030166295	1.704883e-05	-0.00028552784	-0.000360455	-0.00037503775	0.00066189934	0.00015087736	-0.0008269833	0.00016886617	0.0006271738	0.00052105525	-0.0007038619	0.00013357606	-0.00022319639	-0.00017056853	0.0003406947	0.0008517495	0.0005876804	0.00037743102	-0.00040717097	0.00057396496	-0.000733146	-0.0007852094	0.0012989952	-0.00050965504	3.8475464e-05	-0.00036371677	0.00024813248	0.00011038472	-0.0007166247	-0.00013125926	-6.8782945e-05	0.00016794512	0.0004569964	0.00057710713	-0.00060778204	0.00032122296	0.0003347503	-0.00018237434	-0.0005939756	-0.00010037061	0.00031134617	0.0012156988	-0.00015743567	0.00014644097	-0.00048594954	-0.000117433105	0.00013662002	0.00020988495	0.0009966256	0.00013501685	-0.00039687855	-0.00031785175	0.0006041829	0.00037995307	-0.00056924444	-6.376886e-05	-0.00026738396	-0.0014124904	-0.0005838243	0.00013402781	0.0011743865	6.1023293e-05	-0.00025926382	-0.00040761745	0.00057329255	0.0004664847	-8.496394e-05	4.617206e-05	-0.00036196635	-0.00066924654	0.00023501285	-2.9840157e-05	0.0005603428
